*SPEF "ieee 1481-1999"
*DESIGN "sar_ctrl_async_phys"
*DATE "06:53:53 Sunday August 30, 2026"
*VENDOR "The OpenROAD Project"
*PROGRAM "OpenROAD"
*VERSION "26Q1-1024-gdcf36133a"
*DESIGN_FLOW "NAME_SCOPE LOCAL" "PIN_CAP NONE"
*DIVIDER /
*DELIMITER :
*BUS_DELIMITER []
*T_UNIT 1 NS
*C_UNIT 1 PF
*R_UNIT 1 OHM
*L_UNIT 1 HENRY

*NAME_MAP
*3 bit_active[0]
*4 bit_active[1]
*5 bit_active[2]
*6 bit_active[3]
*7 bit_active[4]
*8 bit_active[5]
*9 bit_active[6]
*10 bit_active[7]
*11 busy
*12 cmp_fault
*13 cmp_fire
*14 cmp_n
*15 cmp_p
*16 cmp_valid
*17 dac_code[0]
*18 dac_code[1]
*19 dac_code[2]
*20 dac_code[3]
*21 dac_code[4]
*22 dac_code[5]
*23 dac_code[6]
*24 dac_code[7]
*25 dac_code_n[0]
*26 dac_code_n[1]
*27 dac_code_n[2]
*28 dac_code_n[3]
*29 dac_code_n[4]
*30 dac_code_n[5]
*31 dac_code_n[6]
*32 dac_code_n[7]
*33 done
*34 hold_req
*35 result[0]
*36 result[1]
*37 result[2]
*38 result[3]
*39 result[4]
*40 result[5]
*41 result[6]
*42 result[7]
*43 rst_n
*44 sample
*45 track
*46 _000_
*47 _001_
*48 _002_
*49 _003_
*50 _004_
*51 _005_
*52 _006_
*53 _007_
*54 _008_
*55 _009_
*56 _010_
*57 _011_
*58 _012_
*59 _013_
*60 _014_
*61 _015_
*62 _016_
*63 _017_
*64 _018_
*65 _019_
*66 _020_
*67 _021_
*68 _022_
*69 _023_
*70 _024_
*71 _025_
*72 _026_
*73 _027_
*74 _028_
*75 _029_
*76 _030_
*77 _031_
*78 _032_
*79 _033_
*80 _034_
*81 _035_
*82 _036_
*83 _037_
*84 _038_
*85 _039_
*86 _040_
*87 _041_
*88 _042_
*89 _043_
*90 _044_
*91 _045_
*92 _046_
*93 _047_
*94 _048_
*95 _049_
*96 _050_
*97 _051_
*98 _052_
*99 _053_
*100 _054_
*101 _055_
*102 active_reg\[0\]
*103 active_reg\[1\]
*104 active_reg\[2\]
*105 active_reg\[3\]
*106 active_reg\[4\]
*107 active_reg\[5\]
*108 active_reg\[6\]
*109 active_reg\[7\]
*110 cmp_decision_hold
*111 decision_hold_reset
*112 decision_hold_set
*113 event_pending
*114 event_pending_reset
*115 guard_request
*116 guard_request_delayed
*117 guard_reset
*118 guard_set
*119 hold_elapsed
*120 hold_elapsed_tail
*121 net1
*122 net10
*123 net11
*124 net12
*125 net13
*126 net14
*127 net15
*128 net16
*129 net17
*130 net18
*131 net19
*132 net2
*133 net20
*134 net21
*135 net22
*136 net23
*137 net24
*138 net25
*139 net26
*140 net27
*141 net28
*142 net29
*143 net3
*144 net30
*145 net31
*146 net32
*147 net33
*148 net34
*149 net35
*150 net36
*151 net37
*152 net38
*153 net39
*154 net4
*155 net40
*156 net41
*157 net42
*158 net43
*159 net44
*160 net45
*161 net46
*162 net47
*163 net48
*164 net49
*165 net5
*166 net50
*167 net51
*168 net52
*169 net53
*170 net54
*171 net6
*172 net7
*173 net8
*174 net9
*175 sar_event_raw
*176 settle_ready
*177 track_n
*178 u_decision_hold\.q_n
*179 u_event_clock_delay\.t0
*180 u_event_pending\.q_n
*181 u_hold_delay\.t0
*182 u_hold_delay\.t1
*183 u_hold_delay\.t2
*184 u_interbit_delay\.t0
*185 u_interbit_delay\.t1
*186 u_launch_width\.t0
*187 u_launch_width\.t1
*188 u_launch_width\.t2
*189 u_settle_latch\.q_n
*190 FILLER_0_0
*191 FILLER_0_14
*192 FILLER_0_21
*193 FILLER_0_28
*194 FILLER_0_35
*195 FILLER_0_42
*196 FILLER_0_49
*197 FILLER_0_56
*198 FILLER_0_61
*199 FILLER_0_68
*200 FILLER_0_7
*201 FILLER_10_0
*202 FILLER_10_15
*203 FILLER_10_22
*204 FILLER_10_29
*205 FILLER_10_40
*206 FILLER_10_47
*207 FILLER_10_54
*208 FILLER_10_58
*209 FILLER_10_65
*210 FILLER_10_69
*211 FILLER_10_7
*212 FILLER_10_75
*213 FILLER_10_82
*214 FILLER_10_9
*215 FILLER_11_0
*216 FILLER_11_16
*217 FILLER_11_2
*218 FILLER_11_23
*219 FILLER_11_30
*220 FILLER_11_32
*221 FILLER_11_72
*222 FILLER_11_79
*223 FILLER_11_86
*224 FILLER_11_93
*225 FILLER_11_97
*226 FILLER_12_0
*227 FILLER_12_113
*228 FILLER_12_28
*229 FILLER_12_38
*230 FILLER_12_40
*231 FILLER_12_45
*232 FILLER_12_78
*233 FILLER_12_80
*234 FILLER_13_0
*235 FILLER_13_113
*236 FILLER_13_37
*237 FILLER_13_98
*238 FILLER_14_113
*239 FILLER_14_17
*240 FILLER_14_24
*241 FILLER_14_26
*242 FILLER_14_39
*243 FILLER_14_4
*244 FILLER_14_46
*245 FILLER_14_53
*246 FILLER_14_60
*247 FILLER_14_64
*248 FILLER_14_76
*249 FILLER_15_0
*250 FILLER_15_16
*251 FILLER_15_23
*252 FILLER_15_30
*253 FILLER_15_34
*254 FILLER_15_45
*255 FILLER_15_52
*256 FILLER_15_59
*257 FILLER_15_66
*258 FILLER_15_73
*259 FILLER_15_80
*260 FILLER_15_91
*261 FILLER_16_0
*262 FILLER_16_15
*263 FILLER_16_22
*264 FILLER_16_29
*265 FILLER_16_36
*266 FILLER_16_43
*267 FILLER_16_50
*268 FILLER_16_52
*269 FILLER_16_67
*270 FILLER_16_79
*271 FILLER_17_11
*272 FILLER_17_111
*273 FILLER_17_113
*274 FILLER_17_18
*275 FILLER_17_25
*276 FILLER_17_32
*277 FILLER_17_39
*278 FILLER_17_4
*279 FILLER_17_77
*280 FILLER_18_0
*281 FILLER_18_112
*282 FILLER_18_14
*283 FILLER_18_21
*284 FILLER_18_28
*285 FILLER_18_35
*286 FILLER_18_42
*287 FILLER_18_49
*288 FILLER_18_53
*289 FILLER_18_7
*290 FILLER_18_82
*291 FILLER_18_84
*292 FILLER_19_0
*293 FILLER_19_111
*294 FILLER_19_113
*295 FILLER_19_14
*296 FILLER_19_21
*297 FILLER_19_28
*298 FILLER_19_35
*299 FILLER_19_42
*300 FILLER_19_49
*301 FILLER_19_56
*302 FILLER_19_7
*303 FILLER_19_89
*304 FILLER_19_91
*305 FILLER_1_11
*306 FILLER_1_18
*307 FILLER_1_25
*308 FILLER_1_32
*309 FILLER_1_39
*310 FILLER_1_4
*311 FILLER_1_46
*312 FILLER_1_51
*313 FILLER_20_0
*314 FILLER_20_12
*315 FILLER_20_19
*316 FILLER_20_26
*317 FILLER_20_33
*318 FILLER_20_40
*319 FILLER_20_47
*320 FILLER_20_54
*321 FILLER_20_61
*322 FILLER_20_68
*323 FILLER_20_7
*324 FILLER_20_99
*325 FILLER_21_0
*326 FILLER_21_14
*327 FILLER_21_21
*328 FILLER_21_28
*329 FILLER_21_35
*330 FILLER_21_42
*331 FILLER_21_49
*332 FILLER_21_53
*333 FILLER_21_7
*334 FILLER_21_81
*335 FILLER_21_88
*336 FILLER_22_11
*337 FILLER_22_18
*338 FILLER_22_25
*339 FILLER_22_32
*340 FILLER_22_39
*341 FILLER_22_4
*342 FILLER_22_46
*343 FILLER_22_53
*344 FILLER_22_60
*345 FILLER_22_67
*346 FILLER_22_74
*347 FILLER_22_81
*348 FILLER_22_88
*349 FILLER_2_0
*350 FILLER_2_14
*351 FILLER_2_21
*352 FILLER_2_28
*353 FILLER_2_35
*354 FILLER_2_7
*355 FILLER_3_0
*356 FILLER_3_14
*357 FILLER_3_21
*358 FILLER_3_28
*359 FILLER_3_35
*360 FILLER_3_42
*361 FILLER_3_52
*362 FILLER_3_7
*363 FILLER_3_80
*364 FILLER_4_0
*365 FILLER_4_14
*366 FILLER_4_21
*367 FILLER_4_28
*368 FILLER_4_35
*369 FILLER_4_69
*370 FILLER_4_7
*371 FILLER_4_76
*372 FILLER_5_11
*373 FILLER_5_18
*374 FILLER_5_25
*375 FILLER_5_32
*376 FILLER_5_39
*377 FILLER_5_4
*378 FILLER_5_46
*379 FILLER_5_53
*380 FILLER_5_64
*381 FILLER_5_73
*382 FILLER_5_80
*383 FILLER_6_0
*384 FILLER_6_14
*385 FILLER_6_21
*386 FILLER_6_28
*387 FILLER_6_35
*388 FILLER_6_42
*389 FILLER_6_49
*390 FILLER_6_51
*391 FILLER_6_7
*392 FILLER_6_89
*393 FILLER_7_0
*394 FILLER_7_113
*395 FILLER_7_14
*396 FILLER_7_21
*397 FILLER_7_40
*398 FILLER_7_47
*399 FILLER_7_7
*400 FILLER_7_78
*401 FILLER_7_85
*402 FILLER_8_0
*403 FILLER_8_111
*404 FILLER_8_113
*405 FILLER_8_14
*406 FILLER_8_21
*407 FILLER_8_50
*408 FILLER_8_57
*409 FILLER_8_61
*410 FILLER_8_67
*411 FILLER_8_7
*412 FILLER_8_71
*413 FILLER_8_77
*414 FILLER_9_0
*415 FILLER_9_17
*416 FILLER_9_22
*417 FILLER_9_29
*418 FILLER_9_46
*419 FILLER_9_53
*420 FILLER_9_60
*421 FILLER_9_62
*422 FILLER_9_7
*423 _056_
*424 _057_
*425 _058_
*426 _059_
*427 _060_
*428 _061_
*429 _062_
*430 _063_
*431 _064_
*432 _065_
*433 _066_
*434 _067_
*435 _068_
*436 _069_
*437 _070_
*438 _071_
*439 _072_
*440 _073_
*441 _074_
*442 _075_
*443 _076_
*444 _077_
*445 _078_
*446 _079_
*447 _080_
*448 _081_
*449 _082_
*450 _083_
*451 _084_
*452 _085_
*453 _086_
*454 _087_
*455 _088_
*456 _089_
*457 _090_
*458 _091_
*459 _092_
*460 _093_
*461 _094_
*462 _095_
*463 _096_
*464 _097_
*465 _098_
*466 _099_
*467 _100_
*468 _101_
*469 _102_
*470 _103_
*471 _104_
*472 _105_
*473 _106_
*474 _107_
*475 _108_
*476 _109_
*477 _110_
*478 _111_
*479 _112_
*480 _113_
*481 _114_
*482 _115_
*483 _116_
*484 _117_
*485 _118_
*486 _119_
*487 _120_
*488 _121_
*489 _122_
*490 _123_
*491 _124_
*492 _125_
*493 _126_
*494 _127_
*495 _128_
*496 _129_
*497 _130_
*498 _131_
*499 _132_
*500 _133_
*501 _134_
*502 _135_
*503 _136_
*504 _137_
*505 _138_
*506 _139_
*507 _140_
*508 _141_
*509 _142_
*510 _143_
*511 _144_
*512 _145_
*513 _146_
*514 _147_
*515 _148_
*516 _149_
*517 _150_
*518 _151_
*519 _152_
*520 _153_
*521 _154_
*522 _155_
*523 _156_
*524 _157_
*525 _158_
*526 _159_
*527 _160_
*528 _161_
*529 _162_
*530 _163_
*531 _164_
*532 _165_
*533 fanout43
*534 fanout44
*535 fanout45
*536 fanout46
*537 fanout47
*538 fanout48
*539 fanout49
*540 fanout50
*541 fanout51
*542 fanout52
*543 fanout53
*544 fanout54
*545 input1
*546 input2
*547 input3
*548 output10
*549 output11
*550 output12
*551 output13
*552 output14
*553 output15
*554 output16
*555 output17
*556 output18
*557 output19
*558 output20
*559 output21
*560 output22
*561 output23
*562 output24
*563 output25
*564 output26
*565 output27
*566 output28
*567 output29
*568 output30
*569 output31
*570 output32
*571 output33
*572 output34
*573 output35
*574 output36
*575 output37
*576 output38
*577 output39
*578 output4
*579 output40
*580 output41
*581 output42
*582 output5
*583 output6
*584 output7
*585 output8
*586 output9
*587 u_decision_hold\.u_q
*588 u_decision_hold\.u_qn
*589 u_event_clock_delay\.u_d0
*590 u_event_clock_delay\.u_d1
*591 u_event_pending\.u_q
*592 u_event_pending\.u_qn
*593 u_hold_delay\.u_d0
*594 u_hold_delay\.u_d1
*595 u_hold_delay\.u_d2
*596 u_hold_delay\.u_d3
*597 u_interbit_delay\.u_d0
*598 u_interbit_delay\.u_d1
*599 u_interbit_delay\.u_d2
*600 u_launch_width\.u_d0
*601 u_launch_width\.u_d1
*602 u_launch_width\.u_d2
*603 u_launch_width\.u_d3
*604 u_settle_latch\.u_q
*605 u_settle_latch\.u_qn

*PORTS
bit_active[0] O
bit_active[1] O
bit_active[2] O
bit_active[3] O
bit_active[4] O
bit_active[5] O
bit_active[6] O
bit_active[7] O
busy O
cmp_fault O
cmp_fire O
cmp_n I
cmp_p I
cmp_valid O
dac_code[0] O
dac_code[1] O
dac_code[2] O
dac_code[3] O
dac_code[4] O
dac_code[5] O
dac_code[6] O
dac_code[7] O
dac_code_n[0] O
dac_code_n[1] O
dac_code_n[2] O
dac_code_n[3] O
dac_code_n[4] O
dac_code_n[5] O
dac_code_n[6] O
dac_code_n[7] O
done O
hold_req O
result[0] O
result[1] O
result[2] O
result[3] O
result[4] O
result[5] O
result[6] O
result[7] O
rst_n I
sample O
track I

*D_NET *3 0.00161728
*CONN
*P bit_active[0] O
*I *578:X O *D sg13g2_buf_1
*CAP
1 bit_active[0] 0.000665379
2 *578:X 0.000665379
3 bit_active[0] bit_active[1] 0
4 bit_active[0] busy 0
5 bit_active[0] *104:8 0
6 bit_active[0] *115:108 0.000286526
7 bit_active[0] *171:8 0
*RES
1 *578:X bit_active[0] 47.2924 
*END

*D_NET *4 0.00193306
*CONN
*P bit_active[1] O
*I *582:X O *D sg13g2_buf_1
*CAP
1 bit_active[1] 0.000789307
2 *582:X 0.000789307
3 bit_active[1] bit_active[2] 0
4 bit_active[1] bit_active[4] 0.000144942
5 bit_active[1] *582:A 0
6 bit_active[1] *585:A 0
7 bit_active[1] *146:10 0.000209505
8 bit_active[0] bit_active[1] 0
*RES
1 *582:X bit_active[1] 48.8168 
*END

*D_NET *5 0.00178764
*CONN
*P bit_active[2] O
*I *583:X O *D sg13g2_buf_1
*CAP
1 bit_active[2] 0.000806063
2 *583:X 0.000806063
3 bit_active[2] bit_active[3] 0
4 bit_active[2] *460:B_N 0
5 bit_active[2] *495:A2 0
6 bit_active[2] *104:8 0
7 bit_active[2] *104:22 0
8 bit_active[2] *115:210 0.00017551
9 bit_active[2] *172:37 0
10 bit_active[2] *173:37 0
11 bit_active[1] bit_active[2] 0
*RES
1 *583:X bit_active[2] 48.5593 
*END

*D_NET *6 0.0019863
*CONN
*P bit_active[3] O
*I *584:X O *D sg13g2_buf_1
*CAP
1 bit_active[3] 0.000707208
2 *584:X 0.000707208
3 bit_active[3] bit_active[4] 0
4 bit_active[3] *582:A 0.00057188
5 bit_active[3] *164:22 0
6 bit_active[3] *172:37 0
7 bit_active[3] *173:37 0
8 bit_active[2] bit_active[3] 0
*RES
1 *584:X bit_active[3] 47.3233 
*END

*D_NET *7 0.00164469
*CONN
*P bit_active[4] O
*I *585:X O *D sg13g2_buf_1
*CAP
1 bit_active[4] 0.000749874
2 *585:X 0.000749874
3 bit_active[4] bit_active[5] 0
4 bit_active[4] *582:A 0
5 bit_active[4] *585:A 0
6 bit_active[4] *164:22 0
7 bit_active[4] *173:37 0
8 bit_active[1] bit_active[4] 0.000144942
9 bit_active[3] bit_active[4] 0
*RES
1 *585:X bit_active[4] 47.4475 
*END

*D_NET *8 0.000534107
*CONN
*P bit_active[5] O
*I *586:X O *D sg13g2_buf_1
*CAP
1 bit_active[5] 0.000267054
2 *586:X 0.000267054
3 bit_active[5] bit_active[6] 0
4 bit_active[5] *174:29 0
5 bit_active[4] bit_active[5] 0
*RES
1 *586:X bit_active[5] 43.09 
*END

*D_NET *9 0.00191976
*CONN
*P bit_active[6] O
*I *548:X O *D sg13g2_buf_1
*CAP
1 bit_active[6] 0.000594622
2 *548:X 0.000594622
3 bit_active[6] bit_active[7] 0
4 bit_active[6] *123:23 0.000338389
5 bit_active[6] *136:10 0.000392121
6 bit_active[6] *164:56 0
7 bit_active[6] *172:18 0
8 bit_active[5] bit_active[6] 0
*RES
1 *548:X bit_active[6] 47.3439 
*END

*D_NET *10 0.000890071
*CONN
*P bit_active[7] O
*I *549:X O *D sg13g2_buf_1
*CAP
1 bit_active[7] 0.000445035
2 *549:X 0.000445035
3 bit_active[7] dac_code[7] 0
4 bit_active[7] *164:56 0
5 bit_active[6] bit_active[7] 0
*RES
1 *549:X bit_active[7] 44.8307 
*END

*D_NET *11 0.00143539
*CONN
*P busy O
*I *550:X O *D sg13g2_buf_1
*CAP
1 busy 0.000549244
2 *550:X 0.000549244
3 busy done 0
4 busy *550:A 0
5 busy *582:A 0.000336903
6 bit_active[0] busy 0
*RES
1 *550:X busy 46.0255 
*END

*D_NET *12 0.00147292
*CONN
*P cmp_fault O
*I *551:X O *D sg13g2_buf_1
*CAP
1 cmp_fault 0.000736462
2 *551:X 0.000736462
3 cmp_fault cmp_valid 0
4 cmp_fault *127:33 0
*RES
1 *551:X cmp_fault 48.7859 
*END

*D_NET *13 0.000938598
*CONN
*P cmp_fire O
*I *552:X O *D sg13g2_buf_1
*CAP
1 cmp_fire 0.000412973
2 *552:X 0.000412973
3 cmp_fire *602:A 0.000112651
4 cmp_fire *166:54 0
*RES
1 *552:X cmp_fire 44.9646 
*END

*D_NET *14 0.000733641
*CONN
*P cmp_n I
*I *545:A I *D sg13g2_buf_1
*CAP
1 cmp_n 0.000366821
2 *545:A 0.000366821
3 *545:A *121:10 0
4 *545:A *132:12 0
*RES
1 cmp_n *545:A 44.3157 
*END

*D_NET *15 0.000793394
*CONN
*P cmp_p I
*I *546:A I *D sg13g2_buf_1
*CAP
1 cmp_p 0.000396697
2 *546:A 0.000396697
*RES
1 cmp_p *546:A 44.7483 
*END

*D_NET *16 0.00138314
*CONN
*P cmp_valid O
*I *553:X O *D sg13g2_buf_1
*CAP
1 cmp_valid 0.000627735
2 *553:X 0.000627735
3 cmp_valid dac_code_n[0] 0
4 cmp_valid *27:8 0
5 cmp_valid *139:33 0.00012767
6 cmp_valid *140:33 0
7 cmp_fault cmp_valid 0
*RES
1 *553:X cmp_valid 47.0452 
*END

*D_NET *17 0.00391462
*CONN
*P dac_code[0] O
*I *554:X O *D sg13g2_buf_1
*CAP
1 dac_code[0] 0.000272066
2 *554:X 0.000931211
3 *17:12 0.00120328
4 dac_code[0] dac_code[1] 0
5 dac_code[0] dac_code_n[7] 0
6 dac_code[0] *142:33 0
7 dac_code[0] *163:21 0
8 *17:12 *537:A 0.00110852
9 *17:12 *554:A 0.000143171
10 *17:12 *29:14 0.00017649
11 *17:12 *30:10 0
12 *17:12 *56:6 0
13 *17:12 *133:30 0
14 *17:12 *162:10 7.98828e-05
*RES
1 *554:X *17:12 49.6408 
2 *17:12 dac_code[0] 3.0179 
*END

*D_NET *18 0.00185825
*CONN
*P dac_code[1] O
*I *555:X O *D sg13g2_buf_1
*CAP
1 dac_code[1] 0.000709536
2 *555:X 0.000709536
3 dac_code[1] dac_code[2] 0
4 dac_code[1] *536:A 0.000233672
5 dac_code[1] *115:284 7.91199e-05
6 dac_code[1] *140:8 0.000126383
7 dac_code[1] *161:23 0
8 dac_code[1] *163:21 0
9 dac_code[0] dac_code[1] 0
*RES
1 *555:X dac_code[1] 47.5808 
*END

*D_NET *19 0.00150482
*CONN
*P dac_code[2] O
*I *556:X O *D sg13g2_buf_1
*CAP
1 dac_code[2] 0.000533533
2 *556:X 0.000533533
3 dac_code[2] dac_code[3] 0
4 dac_code[2] *536:A 0.000175867
5 dac_code[2] *557:A 0
6 dac_code[2] *133:30 0.000261884
7 dac_code[2] *161:12 0
8 dac_code[2] *161:54 0
9 dac_code[2] *173:31 0
10 dac_code[1] dac_code[2] 0
*RES
1 *556:X dac_code[2] 45.9122 
*END

*D_NET *20 0.00159798
*CONN
*P dac_code[3] O
*I *557:X O *D sg13g2_buf_1
*CAP
1 dac_code[3] 0.000593294
2 *557:X 0.000593294
3 dac_code[3] dac_code[4] 0
4 dac_code[3] *557:A 0
5 dac_code[3] *21:10 0.000411388
6 dac_code[3] *173:31 0
7 dac_code[3] *174:29 0
8 dac_code[2] dac_code[3] 0
*RES
1 *557:X dac_code[3] 46.2212 
*END

*D_NET *21 0.00161859
*CONN
*P dac_code[4] O
*I *558:X O *D sg13g2_buf_1
*CAP
1 dac_code[4] 0.000277893
2 *558:X 0.000197545
3 *21:10 0.000475438
4 dac_code[4] dac_code[5] 0
5 dac_code[4] *173:37 0.0001127
6 dac_code[4] *174:29 0
7 *21:10 *557:A 0.00014363
8 *21:10 *173:31 0
9 dac_code[3] dac_code[4] 0
10 dac_code[3] *21:10 0.000411388
*RES
1 *558:X *21:10 42.5235 
2 *21:10 dac_code[4] 43.1518 
*END

*D_NET *22 0.00167778
*CONN
*P dac_code[5] O
*I *559:X O *D sg13g2_buf_1
*CAP
1 dac_code[5] 0.000501612
2 *559:X 0.000501612
3 dac_code[5] dac_code[6] 0
4 dac_code[5] dac_code[7] 4.7813e-05
5 dac_code[5] *134:26 0.000339131
6 dac_code[5] *164:56 0.000143301
7 dac_code[5] *164:67 0.000144316
8 dac_code[5] *174:29 0
9 dac_code[4] dac_code[5] 0
*RES
1 *559:X dac_code[5] 45.6856 
*END

*D_NET *23 0.00117568
*CONN
*P dac_code[6] O
*I *560:X O *D sg13g2_buf_1
*CAP
1 dac_code[6] 0.000532315
2 *560:X 3.17617e-05
3 *23:8 0.000564076
4 dac_code[6] dac_code[7] 0
5 dac_code[6] *488:B 0
6 dac_code[6] *134:26 0
7 dac_code[6] *135:8 0
8 *23:8 *447:A1 4.75265e-05
9 dac_code[5] dac_code[6] 0
*RES
1 *560:X *23:8 40.3193 
2 *23:8 dac_code[6] 45.5929 
*END

*D_NET *24 0.00104703
*CONN
*P dac_code[7] O
*I *561:X O *D sg13g2_buf_1
*CAP
1 dac_code[7] 0.000491907
2 *561:X 0.000491907
3 dac_code[7] *559:A 0
4 dac_code[7] *164:56 1.54008e-05
5 dac_code[7] *174:29 0
6 bit_active[7] dac_code[7] 0
7 dac_code[5] dac_code[7] 4.7813e-05
8 dac_code[6] dac_code[7] 0
*RES
1 *561:X dac_code[7] 45.2427 
*END

*D_NET *25 0.00132102
*CONN
*P dac_code_n[0] O
*I *562:X O *D sg13g2_buf_1
*CAP
1 dac_code_n[0] 0.000660512
2 *562:X 0.000660512
3 dac_code_n[0] dac_code_n[1] 0
4 dac_code_n[0] *27:8 0
5 dac_code_n[0] *139:33 0
6 dac_code_n[0] *141:41 0
7 dac_code_n[0] *144:42 0
8 cmp_valid dac_code_n[0] 0
*RES
1 *562:X dac_code_n[0] 46.489 
*END

*D_NET *26 0.0020224
*CONN
*P dac_code_n[1] O
*I *563:X O *D sg13g2_buf_1
*CAP
1 dac_code_n[1] 0.000593931
2 *563:X 0.000593931
3 dac_code_n[1] dac_code_n[2] 0
4 dac_code_n[1] *31:10 0
5 dac_code_n[1] *140:33 0
6 dac_code_n[1] *141:41 0.000547791
7 dac_code_n[1] *144:42 0.000286746
8 dac_code_n[0] dac_code_n[1] 0
*RES
1 *563:X dac_code_n[1] 46.7259 
*END

*D_NET *27 0.00155432
*CONN
*P dac_code_n[2] O
*I *564:X O *D sg13g2_buf_1
*CAP
1 dac_code_n[2] 0.00048782
2 *564:X 0.000289341
3 *27:8 0.000777161
4 dac_code_n[2] dac_code_n[3] 0
5 cmp_valid *27:8 0
6 dac_code_n[0] *27:8 0
7 dac_code_n[1] dac_code_n[2] 0
*RES
1 *564:X *27:8 42.575 
2 *27:8 dac_code_n[2] 45.6238 
*END

*D_NET *28 0.0025335
*CONN
*P dac_code_n[3] O
*I *565:X O *D sg13g2_buf_1
*CAP
1 dac_code_n[3] 0.000420596
2 *565:X 0.000296424
3 *28:10 0.00071702
4 dac_code_n[3] dac_code_n[4] 0
5 dac_code_n[3] *31:10 0
6 *28:10 *486:B 0.000111207
7 *28:10 *31:10 0.000232035
8 *28:10 *128:10 0.000127823
9 *28:10 *133:10 0.000180773
10 *28:10 *138:31 0.000336685
11 *28:10 *141:41 0
12 *28:10 *144:42 0.000110936
13 *28:10 *162:12 0
14 dac_code_n[2] dac_code_n[3] 0
*RES
1 *565:X *28:10 43.8213 
2 *28:10 dac_code_n[3] 44.8204 
*END

*D_NET *29 0.00261549
*CONN
*P dac_code_n[4] O
*I *566:X O *D sg13g2_buf_1
*CAP
1 dac_code_n[4] 0.000282079
2 *566:X 0.000697969
3 *29:14 0.000980047
4 dac_code_n[4] dac_code_n[5] 0
5 *29:14 *554:A 0.000207715
6 *29:14 *30:10 0
7 *29:14 *31:10 7.92265e-05
8 *29:14 *56:6 0.000112078
9 *29:14 *133:30 0
10 *29:14 *141:41 0
11 *29:14 *162:10 7.98828e-05
12 dac_code_n[3] dac_code_n[4] 0
13 *17:12 *29:14 0.00017649
*RES
1 *566:X *29:14 46.7465 
2 *29:14 dac_code_n[4] 3.2651 
*END

*D_NET *30 0.00320686
*CONN
*P dac_code_n[5] O
*I *567:X O *D sg13g2_buf_1
*CAP
1 dac_code_n[5] 0.000208407
2 *567:X 0.000732712
3 *30:10 0.000941119
4 dac_code_n[5] dac_code_n[6] 0
5 dac_code_n[5] *174:29 0
6 *30:10 dac_code_n[6] 0.000726567
7 *30:10 *537:A 0.000598053
8 *30:10 *554:A 0
9 *30:10 *142:33 0
10 dac_code_n[4] dac_code_n[5] 0
11 *17:12 *30:10 0
12 *29:14 *30:10 0
*RES
1 *567:X *30:10 47.5911 
2 *30:10 dac_code_n[5] 2.5235 
*END

*D_NET *31 0.00400661
*CONN
*P dac_code_n[6] O
*I *568:X O *D sg13g2_buf_1
*CAP
1 dac_code_n[6] 0.000683857
2 *568:X 0.000224533
3 *31:10 0.000908389
4 dac_code_n[6] dac_code_n[7] 0
5 dac_code_n[6] *537:A 0
6 dac_code_n[6] *142:33 0.000923205
7 dac_code_n[6] *174:29 0.000181279
8 *31:10 *141:41 4.75166e-05
9 dac_code_n[1] *31:10 0
10 dac_code_n[3] *31:10 0
11 dac_code_n[5] dac_code_n[6] 0
12 *28:10 *31:10 0.000232035
13 *29:14 *31:10 7.92265e-05
14 *30:10 dac_code_n[6] 0.000726567
*RES
1 *568:X *31:10 42.1218 
2 *31:10 dac_code_n[6] 48.4357 
*END

*D_NET *32 0.00322018
*CONN
*P dac_code_n[7] O
*I *569:X O *D sg13g2_buf_1
*CAP
1 dac_code_n[7] 0.000630247
2 *569:X 0.000134056
3 *32:14 0.000929651
4 *32:8 0.00043346
5 dac_code_n[7] *142:33 0
6 dac_code_n[7] *162:37 2.14736e-05
7 dac_code_n[7] *174:29 0
8 *32:8 *490:B 2.14736e-05
9 *32:8 *173:31 0
10 *32:14 *140:22 0.00015154
11 *32:14 *140:33 0.00044161
12 *32:14 *144:18 0.000456668
13 dac_code[0] dac_code_n[7] 0
14 dac_code_n[6] dac_code_n[7] 0
*RES
1 *569:X *32:8 41.0918 
2 *32:8 *32:14 43.7801 
3 *32:14 dac_code_n[7] 6.2315 
*END

*D_NET *33 0.00105642
*CONN
*P done O
*I *570:X O *D sg13g2_buf_1
*CAP
1 done 0.000528208
2 *570:X 0.000528208
3 done result[7] 0
4 done *550:A 0
5 busy done 0
*RES
1 *570:X done 45.7165 
*END

*D_NET *34 0.000687035
*CONN
*P hold_req O
*I *571:X O *D sg13g2_buf_1
*CAP
1 hold_req 0.000343518
2 *571:X 0.000343518
3 hold_req *147:10 0
*RES
1 *571:X hold_req 44.0994 
*END

*D_NET *35 0.00180457
*CONN
*P result[0] O
*I *572:X O *D sg13g2_buf_1
*CAP
1 result[0] 0.000819507
2 *572:X 8.27797e-05
3 *35:8 0.000902287
4 result[0] result[1] 0
5 result[0] *573:A 0
6 result[0] *43:9 0
7 *35:8 *43:9 0
*RES
1 *572:X *35:8 40.7519 
2 *35:8 result[0] 10.4339 
*END

*D_NET *36 0.00189012
*CONN
*P result[1] O
*I *573:X O *D sg13g2_buf_1
*CAP
1 result[1] 0.000945059
2 *573:X 0.000945059
3 result[1] result[2] 0
4 result[1] *149:8 0
5 result[0] result[1] 0
*RES
1 *573:X result[1] 49.7644 
*END

*D_NET *37 0.00180942
*CONN
*P result[2] O
*I *574:X O *D sg13g2_buf_1
*CAP
1 result[2] 0.000904709
2 *574:X 0
3 *37:6 0.000904709
4 result[2] result[3] 0
5 result[2] *573:A 0
6 result[2] *149:8 0
7 result[2] *167:29 0
8 result[1] result[2] 0
*RES
1 *574:X *37:6 40 
2 *37:6 result[2] 10.4339 
*END

*D_NET *38 0.00186517
*CONN
*P result[3] O
*I *575:X O *D sg13g2_buf_1
*CAP
1 result[3] 0.000932584
2 *575:X 0.000932584
3 result[3] result[4] 0
4 result[3] *167:27 0
5 result[2] result[3] 0
*RES
1 *575:X result[3] 49.7644 
*END

*D_NET *39 0.00335586
*CONN
*P result[4] O
*I *576:X O *D sg13g2_buf_1
*CAP
1 result[4] 0.000660449
2 *576:X 0.000376034
3 *39:8 0.00103648
4 result[4] result[5] 0
5 result[4] result[6] 0
6 result[4] *541:A 0
7 result[4] *579:A 0
8 result[4] *150:8 0
9 result[4] *155:26 0.000127744
10 result[4] *167:10 0
11 result[4] *167:115 0
12 *39:8 result[7] 0
13 *39:8 *94:10 0.000601954
14 *39:8 *159:53 0
15 *39:8 *167:115 0
16 *39:8 *168:10 0.000553195
17 result[3] result[4] 0
*RES
1 *576:X *39:8 45.047 
2 *39:8 result[4] 46.6406 
*END

*D_NET *40 0.00342574
*CONN
*P result[5] O
*I *577:X O *D sg13g2_buf_1
*CAP
1 result[5] 0.000709776
2 *577:X 0.000709776
3 result[5] result[6] 0
4 result[5] *495:A1 0
5 result[5] *95:10 0.000272843
6 result[5] *146:10 0
7 result[5] *150:8 0.000977656
8 result[5] *153:29 0
9 result[5] *167:115 0.00075569
10 result[4] result[5] 0
*RES
1 *577:X result[5] 49.9704 
*END

*D_NET *41 0.000914148
*CONN
*P result[6] O
*I *579:X O *D sg13g2_buf_1
*CAP
1 result[6] 0.000457074
2 *579:X 0.000457074
3 result[6] result[7] 0
4 result[6] *509:D 0
5 result[4] result[6] 0
6 result[5] result[6] 0
*RES
1 *579:X result[6] 45.0517 
*END

*D_NET *42 0.00150255
*CONN
*P result[7] O
*I *580:X O *D sg13g2_buf_1
*CAP
1 result[7] 0.000473845
2 *580:X 0.000473845
3 result[7] *146:10 0.000554859
4 done result[7] 0
5 result[6] result[7] 0
6 *39:8 result[7] 0
*RES
1 *580:X result[7] 46.1594 
*END

*D_NET *43 0.00230942
*CONN
*P rst_n I
*I *547:A I *D sg13g2_buf_1
*CAP
1 rst_n 0.00115471
2 *547:A 0
3 *43:9 0.00115471
4 *43:9 *572:A 0
5 result[0] *43:9 0
6 *35:8 *43:9 0
*RES
1 rst_n *43:9 34.6157 
2 *43:9 *547:A 20 
*END

*D_NET *44 0.000490167
*CONN
*P sample O
*I *581:X O *D sg13g2_buf_1
*CAP
1 sample 0.000245083
2 *581:X 0.000245083
*RES
1 *581:X sample 43.2342 
*END

*D_NET *45 0.00411649
*CONN
*P track I
*I *472:A I *D sg13g2_nor2_1
*I *426:A I *D sg13g2_inv_1
*CAP
1 track 0.000758901
2 *472:A 0
3 *426:A 0
4 *45:23 0.000717951
5 *45:9 0.00147685
6 *45:9 *464:B 0
7 *45:9 *121:10 0.000176914
8 *45:9 *125:8 0
9 *45:9 *132:12 0
10 *45:9 *166:54 0
11 *45:23 *474:B1 0.000144691
12 *45:23 *596:A 0
13 *45:23 *87:14 0
14 *45:23 *91:8 0
15 *45:23 *120:10 0.00060678
16 *45:23 *125:8 0
17 *45:23 *175:12 0
18 *45:23 *187:8 0.000234398
*RES
1 track *45:9 28.7344 
2 *45:9 *45:23 48.3636 
3 *45:23 *426:A 20 
4 *45:9 *472:A 20 
*END

*D_NET *46 0.00159186
*CONN
*I *463:A I *D sg13g2_nor2_1
*I *524:D I *D sg13g2_dfrbpq_1
*I *460:Y O *D sg13g2_nor2b_1
*CAP
1 *463:A 0.000192177
2 *524:D 0
3 *460:Y 0.000203958
4 *46:16 0.000157062
5 *46:10 0.000553197
6 *463:A *463:B 0
7 *463:A *503:A2 0
8 *463:A *82:32 0
9 *46:10 *503:A2 0
10 *46:10 *82:32 0.000144767
11 *46:16 *100:10 0
12 *46:16 *124:16 0.000340704
13 *46:16 *168:72 0
*RES
1 *460:Y *46:10 22.0703 
2 *46:10 *46:16 42.0806 
3 *46:16 *524:D 20 
4 *46:10 *463:A 21.8334 
*END

*D_NET *47 0.00137365
*CONN
*I *458:A I *D sg13g2_nor2_1
*I *525:D I *D sg13g2_dfrbpq_1
*I *455:Y O *D sg13g2_nor2b_1
*CAP
1 *458:A 0.000453802
2 *525:D 3.64002e-05
3 *455:Y 7.16056e-05
4 *47:10 0.000490202
5 *47:8 7.16056e-05
6 *458:A *458:B 0
7 *458:A *497:A2 0
8 *458:A *48:23 0
9 *458:A *64:16 0
10 *525:D *455:B_N 1.54008e-05
11 *47:8 *460:B_N 0.000234634
*RES
1 *455:Y *47:8 41.0918 
2 *47:8 *47:10 20 
3 *47:10 *525:D 20.3193 
4 *47:10 *458:A 24.3775 
*END

*D_NET *48 0.00197342
*CONN
*I *526:D I *D sg13g2_dfrbpq_1
*I *453:A I *D sg13g2_nor2_1
*I *450:Y O *D sg13g2_nor2b_1
*CAP
1 *526:D 0
2 *453:A 0.000262159
3 *450:Y 0
4 *48:23 0.000500116
5 *48:4 0.000762275
6 *453:A *450:A 0.000208377
7 *453:A *458:B 0.000240495
8 *453:A *84:27 0
9 *453:A *172:37 0
10 *48:23 *455:B_N 0
11 *48:23 *458:B 0
12 *48:23 *100:10 0
13 *48:23 *168:59 0
14 *48:23 *168:70 0
15 *48:23 *172:37 0
16 *458:A *48:23 0
*RES
1 *450:Y *48:4 20 
2 *48:4 *453:A 23.1827 
3 *48:4 *48:23 44.223 
4 *48:23 *526:D 20 
*END

*D_NET *49 0.00334191
*CONN
*I *448:A I *D sg13g2_nor2_1
*I *527:D I *D sg13g2_dfrbpq_1
*I *445:Y O *D sg13g2_nor2b_1
*CAP
1 *448:A 0
2 *527:D 0.000279436
3 *445:Y 0.000165229
4 *49:25 0.000231134
5 *49:10 0.000510571
6 *49:8 0.000165229
7 *527:D *448:B 0.000144768
8 *527:D *497:A2 0.000274643
9 *527:D *64:16 0
10 *49:8 *434:B 0
11 *49:8 *127:23 0.000655142
12 *49:8 *144:55 0.000707567
13 *49:25 *448:B 0.000192794
14 *49:25 *519:D 1.54008e-05
15 *49:25 *64:16 0
*RES
1 *445:Y *49:8 43.3166 
2 *49:8 *49:10 20 
3 *49:10 *527:D 22.6986 
4 *49:10 *49:25 42.2454 
5 *49:25 *448:A 20 
*END

*D_NET *50 0.00295093
*CONN
*I *443:A I *D sg13g2_nor2_1
*I *528:D I *D sg13g2_dfrbpq_1
*I *440:Y O *D sg13g2_nor2b_1
*CAP
1 *443:A 0
2 *528:D 0.000440044
3 *440:Y 0.000346774
4 *50:12 0.000829318
5 *50:8 0.000736047
6 *528:D *528:RESET_B 0
7 *50:8 *437:B1 0
8 *50:8 *529:RESET_B 0
9 *50:8 *51:8 0
10 *50:8 *160:78 0
11 *50:8 *170:25 0
12 *50:12 *521:D 0
13 *50:12 *528:RESET_B 0.000194521
14 *50:12 *170:38 0.000274622
15 *50:12 *170:45 0.000129603
*RES
1 *440:Y *50:8 43.5638 
2 *50:8 *50:12 24.429 
3 *50:12 *528:D 25.0882 
4 *50:12 *443:A 20 
*END

*D_NET *51 0.00155886
*CONN
*I *529:D I *D sg13g2_dfrbpq_1
*I *438:A I *D sg13g2_nor2_1
*I *435:Y O *D sg13g2_nor2b_1
*CAP
1 *529:D 0
2 *438:A 0
3 *435:Y 0.000114366
4 *51:25 0.000522745
5 *51:10 0.000522745
6 *51:8 0.000114366
7 *51:8 *160:78 7.52158e-05
8 *51:25 *521:D 0
9 *51:25 *529:RESET_B 0
10 *51:25 *81:10 0
11 *51:25 *115:307 0.000209422
12 *50:8 *51:8 0
*RES
1 *435:Y *51:8 41.339 
2 *51:8 *51:10 20 
3 *51:10 *438:A 20 
4 *51:10 *51:25 45.6856 
5 *51:25 *529:D 20 
*END

*D_NET *52 0.00217409
*CONN
*I *530:D I *D sg13g2_dfrbpq_1
*I *433:A I *D sg13g2_nor2_1
*I *430:Y O *D sg13g2_nor2b_1
*CAP
1 *530:D 0
2 *433:A 0
3 *430:Y 0.000108886
4 *52:29 0.000416124
5 *52:16 0.000201537
6 *52:8 0.000726547
7 *52:8 *430:A 4.77425e-05
8 *52:8 *430:B_N 0
9 *52:8 *166:96 0
10 *52:16 *115:79 0.000125175
11 *52:16 *115:90 0.00033998
12 *52:16 *122:12 4.77425e-05
13 *52:16 *160:68 0
14 *52:29 *430:A 4.78359e-05
15 *52:29 *530:CLK 0
16 *52:29 *109:20 0
17 *52:29 *122:27 0
18 *52:29 *160:68 0
19 *52:29 *166:96 0.000112521
20 *52:29 *169:26 0
21 *52:29 *169:30 0
*RES
1 *430:Y *52:8 21.1021 
2 *52:8 *52:16 42.3999 
3 *52:16 *433:A 20 
4 *52:8 *52:29 44.223 
5 *52:29 *530:D 20 
*END

*D_NET *53 0.00345391
*CONN
*I *531:D I *D sg13g2_dfrbpq_1
*I *469:A I *D sg13g2_nor2_1
*I *428:A I *D sg13g2_nor2_1
*I *479:A I *D sg13g2_nor4_1
*I *424:Y O *D sg13g2_inv_1
*CAP
1 *531:D 2.59636e-05
2 *469:A 0.000339426
3 *428:A 0.00036396
4 *479:A 0
5 *424:Y 5.26091e-05
6 *53:12 0.00067002
7 *53:10 0.00068114
8 *53:8 0.000114227
9 *428:A *523:D 0.000272195
10 *428:A *92:10 0
11 *469:A *531:RESET_B 0
12 *469:A *79:12 0
13 *469:A *115:52 0.000337158
14 *53:8 *424:A 1.53311e-05
15 *53:8 *478:B 2.19969e-05
16 *53:10 *478:B 4.72904e-05
17 *53:12 *478:B 0.000160513
18 *53:12 *479:B 1.53311e-05
19 *53:12 *92:10 0.000336746
20 *53:12 *113:16 0
21 *53:12 *127:12 0
*RES
1 *424:Y *53:8 20.6695 
2 *53:8 *53:10 0.5356 
3 *53:10 *53:12 3.3475 
4 *53:12 *479:A 20 
5 *53:12 *428:A 23.9552 
6 *53:10 *469:A 23.7807 
7 *53:8 *531:D 20.3502 
*END

*D_NET *54 0.00264771
*CONN
*I *533:A I *D sg13g2_buf_1
*I *497:B1 I *D sg13g2_a22oi_1
*I *480:Y O *D sg13g2_nand2_1
*CAP
1 *533:A 0
2 *497:B1 0
3 *480:Y 0.000151228
4 *54:22 0.000935167
5 *54:12 0.000935167
6 *54:10 0.000151228
7 *54:10 *480:B 0
8 *54:10 *501:A2 0
9 *54:10 *503:A2 0
10 *54:10 *158:8 0.000287757
11 *54:22 *497:B2 0
12 *54:22 *497:A2 0
13 *54:22 *507:D 0
14 *54:22 *82:32 0
15 *54:22 *94:10 0
16 *54:22 *155:10 0.000187162
17 *54:22 *159:53 0
18 *54:22 *159:55 0
19 *54:22 *159:57 0
20 *54:22 *167:87 0
*RES
1 *480:Y *54:10 41.8746 
2 *54:10 *54:12 20 
3 *54:12 *54:22 48.1576 
4 *54:22 *497:B1 20 
5 *54:12 *533:A 20 
*END

*D_NET *55 0.00107057
*CONN
*I *482:B I *D sg13g2_nand2_1
*I *461:A_N I *D sg13g2_nand2b_1
*I *516:Q O *D sg13g2_dfrbpq_1
*CAP
1 *482:B 6.21805e-05
2 *461:A_N 0
3 *516:Q 0.000271195
4 *55:18 0.000112673
5 *55:14 0.000321687
6 *482:B *133:30 3.05216e-05
7 *55:14 *486:B 0
8 *55:14 *59:8 0
9 *55:14 *137:8 0.00017686
10 *55:14 *139:10 0
11 *55:14 *141:41 4.7707e-05
12 *55:18 *461:B 4.77425e-05
*RES
1 *516:Q *55:14 42.575 
2 *55:14 *55:18 20.5356 
3 *55:18 *461:A_N 20 
4 *55:18 *482:B 20.7107 
*END

*D_NET *56 0.00306642
*CONN
*I *456:A_N I *D sg13g2_nand2b_1
*I *483:B I *D sg13g2_nand2_1
*I *517:Q O *D sg13g2_dfrbpq_1
*CAP
1 *456:A_N 0
2 *483:B 0
3 *517:Q 0.000354086
4 *56:12 0.000341168
5 *56:6 0.000695254
6 *56:6 *456:B 1.54008e-05
7 *56:6 *133:30 0.000465186
8 *56:12 *441:B 0.000284377
9 *56:12 *456:B 5.28594e-05
10 *56:12 *59:8 0
11 *56:12 *139:10 5.29404e-05
12 *56:12 *139:16 0.000282087
13 *56:12 *161:73 0.000179006
14 *56:12 *161:99 0.000231973
15 *17:12 *56:6 0
16 *29:14 *56:6 0.000112078
*RES
1 *517:Q *56:6 23.5638 
2 *56:6 *56:12 44.3054 
3 *56:12 *483:B 20 
4 *56:6 *456:A_N 20 
*END

*D_NET *57 0.00230654
*CONN
*I *451:A_N I *D sg13g2_nand2b_1
*I *484:B I *D sg13g2_nand2_1
*I *518:Q O *D sg13g2_dfrbpq_1
*CAP
1 *451:A_N 0.000292226
2 *484:B 0.00043323
3 *518:Q 0.000179512
4 *57:8 0.000904969
5 *451:A_N *144:32 0
6 *451:A_N *161:73 0
7 *451:A_N *161:88 4.77425e-05
8 *451:A_N *161:99 1.54008e-05
9 *484:B *441:B 0
10 *484:B *144:32 0.000433458
11 *484:B *161:73 0
12 *484:B *162:37 0
13 *484:B *174:29 0
14 *57:8 *161:73 0
15 *57:8 *174:29 0
*RES
1 *518:Q *57:8 41.5862 
2 *57:8 *484:B 44.6556 
3 *57:8 *451:A_N 42.6986 
*END

*D_NET *58 0.000928947
*CONN
*I *485:B I *D sg13g2_nand2_1
*I *446:A_N I *D sg13g2_nand2b_1
*I *519:Q O *D sg13g2_dfrbpq_1
*CAP
1 *485:B 0.000120787
2 *446:A_N 0.000224394
3 *519:Q 0
4 *58:4 0.000345181
5 *446:A_N *446:B 0
6 *446:A_N *487:A 0
7 *446:A_N *536:A 4.75265e-05
8 *446:A_N *161:12 0.000143413
9 *446:A_N *161:23 4.76456e-05
10 *485:B *447:A2 0
11 *485:B *161:12 0
12 *485:B *174:29 0
*RES
1 *519:Q *58:4 20 
2 *58:4 *446:A_N 22.4617 
3 *58:4 *485:B 21.3493 
*END

*D_NET *59 0.00263037
*CONN
*I *486:B I *D sg13g2_nand2_1
*I *441:A_N I *D sg13g2_nand2b_1
*I *520:Q O *D sg13g2_dfrbpq_1
*CAP
1 *486:B 0.000449012
2 *441:A_N 4.87948e-05
3 *520:Q 0.000227339
4 *59:10 0.000497806
5 *59:8 0.000227339
6 *441:A_N *441:B 1.54008e-05
7 *441:A_N *144:32 8.00842e-05
8 *486:B *486:A 0
9 *486:B *141:41 0
10 *486:B *144:32 0.000240417
11 *486:B *144:42 0
12 *59:8 *139:16 0.000232104
13 *59:8 *141:12 0.000500862
14 *28:10 *486:B 0.000111207
15 *55:14 *486:B 0
16 *55:14 *59:8 0
17 *56:12 *59:8 0
*RES
1 *520:Q *59:8 43.0694 
2 *59:8 *59:10 20 
3 *59:10 *441:A_N 20.5356 
4 *59:10 *486:B 24.5217 
*END

*D_NET *60 0.00340237
*CONN
*I *436:A_N I *D sg13g2_nand2b_1
*I *487:B I *D sg13g2_nand2_1
*I *521:Q O *D sg13g2_dfrbpq_1
*CAP
1 *436:A_N 0
2 *487:B 0
3 *521:Q 0.000545774
4 *60:22 0.000192674
5 *60:16 0.000276986
6 *60:12 0.000630086
7 *60:12 *437:B1 0.000444285
8 *60:12 *444:A 0
9 *60:12 *64:16 0
10 *60:12 *106:10 0.000144872
11 *60:12 *137:20 0.00024222
12 *60:12 *142:33 0.000181024
13 *60:12 *173:8 0
14 *60:16 *436:B 1.53311e-05
15 *60:16 *142:8 0
16 *60:22 *130:8 0.000180007
17 *60:22 *142:33 0
18 *60:22 *163:21 0.000549109
*RES
1 *521:Q *60:12 46.0873 
2 *60:12 *60:16 20.7519 
3 *60:16 *60:22 42.575 
4 *60:22 *487:B 20 
5 *60:16 *436:A_N 20 
*END

*D_NET *61 0.00239088
*CONN
*I *488:B I *D sg13g2_nand2_1
*I *431:A_N I *D sg13g2_nand2b_1
*I *522:Q O *D sg13g2_dfrbpq_1
*CAP
1 *488:B 0.000229092
2 *431:A_N 2.99958e-05
3 *522:Q 0.000133022
4 *61:8 0.00039211
5 *431:A_N *140:22 4.77425e-05
6 *488:B *134:18 0
7 *488:B *135:8 0
8 *488:B *164:80 0.000405823
9 *61:8 *434:B 0.000549659
10 *61:8 *83:8 0.000603436
11 dac_code[6] *488:B 0
*RES
1 *522:Q *61:8 42.8222 
2 *61:8 *431:A_N 40.3193 
3 *61:8 *488:B 42.6471 
*END

*D_NET *62 0.0078708
*CONN
*I *490:A_N I *D sg13g2_nand2b_1
*I *489:B I *D sg13g2_nand2_1
*I *427:B1 I *D sg13g2_a21oi_1
*I *523:Q O *D sg13g2_dfrbpq_1
*CAP
1 *490:A_N 0
2 *489:B 0.000618083
3 *427:B1 0.000852191
4 *523:Q 3.79701e-05
5 *62:46 0.000352583
6 *62:25 0.00167257
7 *62:8 0.00159207
8 *427:B1 *531:RESET_B 0
9 *427:B1 *79:27 1.54008e-05
10 *427:B1 *100:74 0
11 *427:B1 *115:36 0
12 *427:B1 *127:23 0
13 *427:B1 *169:47 0
14 *427:B1 *169:62 0
15 *489:B *445:B_N 0.000143652
16 *489:B *560:A 0
17 *489:B *115:273 0
18 *489:B *140:22 0
19 *489:B *144:18 4.6793e-05
20 *489:B *172:18 0
21 *62:25 *432:A1 0
22 *62:25 *432:A2 0
23 *62:25 *127:23 0
24 *62:25 *144:55 0.00165967
25 *62:25 *169:10 0
26 *62:25 *173:31 0
27 *62:46 *445:B_N 6.40363e-05
28 *62:46 *490:B 4.76661e-05
29 *62:46 *115:284 0
30 *62:46 *134:18 0.000272523
31 *62:46 *144:18 0.000351395
32 *62:46 *173:18 0.00014419
33 *62:46 *173:31 0
*RES
1 *523:Q *62:8 40.3193 
2 *62:8 *427:B1 47.4675 
3 *62:8 *62:25 28.5799 
4 *62:25 *489:B 26.3036 
5 *62:25 *62:46 43.8316 
6 *62:46 *490:A_N 20 
*END

*D_NET *63 0.0059083
*CONN
*I *516:D I *D sg13g2_dfrbpq_1
*I *463:Y O *D sg13g2_nor2_1
*CAP
1 *516:D 0
2 *463:Y 0.00191329
3 *63:12 0.00191329
4 *63:12 *432:A2 0
5 *63:12 *434:B 0.000272856
6 *63:12 *439:B 0
7 *63:12 *463:B 0.00014475
8 *63:12 *503:A2 0
9 *63:12 *516:RESET_B 0
10 *63:12 *82:10 0.000825329
11 *63:12 *82:32 0
12 *63:12 *100:78 0
13 *63:12 *115:340 0
14 *63:12 *122:6 0.000305011
15 *63:12 *122:12 0.000533766
16 *63:12 *160:78 0
17 *63:12 *170:53 0
*RES
1 *463:Y *63:12 39.9408 
2 *63:12 *516:D 20 
*END

*D_NET *64 0.0049269
*CONN
*I *517:D I *D sg13g2_dfrbpq_1
*I *458:Y O *D sg13g2_nor2_1
*CAP
1 *517:D 0
2 *458:Y 0.00149457
3 *64:16 0.00149457
4 *64:16 *462:B1 0.000274057
5 *64:16 *497:A2 0
6 *64:16 *517:RESET_B 0
7 *64:16 *519:D 8.03692e-05
8 *64:16 *538:A 0
9 *64:16 *86:12 0.00153547
10 *64:16 *137:20 4.78743e-05
11 *64:16 *163:10 0
12 *458:A *64:16 0
13 *527:D *64:16 0
14 *49:25 *64:16 0
15 *60:12 *64:16 0
*RES
1 *458:Y *64:16 35.4809 
2 *64:16 *517:D 20 
*END

*D_NET *65 0.00377746
*CONN
*I *518:D I *D sg13g2_dfrbpq_1
*I *453:Y O *D sg13g2_nor2_1
*CAP
1 *518:D 0
2 *453:Y 0.000124031
3 *65:16 0
4 *65:12 0.00159505
5 *65:8 0.00171908
6 *65:8 *100:10 0
7 *65:8 *160:12 0.000339298
*RES
1 *453:Y *65:8 41.5862 
2 *65:8 *65:12 35.244 
3 *65:12 *65:16 40 
4 *65:16 *518:D 20 
*END

*D_NET *66 0.000282113
*CONN
*I *519:D I *D sg13g2_dfrbpq_1
*I *448:Y O *D sg13g2_nor2_1
*CAP
1 *519:D 9.31714e-05
2 *448:Y 9.31714e-05
3 *519:D *538:A 0
4 *49:25 *519:D 1.54008e-05
5 *64:16 *519:D 8.03692e-05
*RES
1 *448:Y *519:D 41.133 
*END

*D_NET *67 0.000196008
*CONN
*I *520:D I *D sg13g2_dfrbpq_1
*I *443:Y O *D sg13g2_nor2_1
*CAP
1 *520:D 9.8004e-05
2 *443:Y 9.8004e-05
3 *520:D *528:RESET_B 0
4 *520:D *170:53 0
*RES
1 *443:Y *520:D 41.133 
*END

*D_NET *68 0.000686655
*CONN
*I *521:D I *D sg13g2_dfrbpq_1
*I *438:Y O *D sg13g2_nor2_1
*CAP
1 *521:D 0.000343327
2 *438:Y 0.000343327
3 *521:D *437:A2 0
4 *521:D *115:307 0
5 *521:D *115:318 0
6 *50:12 *521:D 0
7 *51:25 *521:D 0
*RES
1 *438:Y *521:D 43.1312 
*END

*D_NET *69 0.00163964
*CONN
*I *522:D I *D sg13g2_dfrbpq_1
*I *433:Y O *D sg13g2_nor2_1
*CAP
1 *522:D 0
2 *433:Y 0.000422
3 *69:10 0.000422
4 *69:10 *522:RESET_B 8.0216e-05
5 *69:10 *80:8 0.000533727
6 *69:10 *122:12 0
7 *69:10 *127:23 0.000181694
8 *69:10 *169:26 0
*RES
1 *433:Y *69:10 44.4084 
2 *69:10 *522:D 40 
*END

*D_NET *70 0.000814391
*CONN
*I *523:D I *D sg13g2_dfrbpq_1
*I *428:Y O *D sg13g2_nor2_1
*CAP
1 *523:D 0.000271098
2 *428:Y 0.000271098
3 *428:A *523:D 0.000272195
*RES
1 *428:Y *523:D 42.9973 
*END

*D_NET *71 0.000766943
*CONN
*I *506:D I *D sg13g2_dfrbpq_1
*I *492:Y O *D sg13g2_inv_1
*CAP
1 *506:D 0.000320037
2 *492:Y 0.000320037
3 *506:D *500:A 0
4 *506:D *510:CLK 0
5 *506:D *155:26 4.78524e-05
6 *506:D *158:71 0
7 *506:D *167:70 0
8 *506:D *167:87 7.90177e-05
*RES
1 *492:Y *506:D 43.6565 
*END

*D_NET *72 0.0023663
*CONN
*I *507:D I *D sg13g2_dfrbpq_1
*I *494:Y O *D sg13g2_inv_1
*CAP
1 *507:D 0.00101349
2 *494:Y 0.00101349
3 *507:D *491:B2 0
4 *507:D *497:B2 0
5 *507:D *497:A2 0
6 *507:D *507:RESET_B 0
7 *507:D *572:A 0
8 *507:D *573:A 0
9 *507:D *575:A 0
10 *507:D *86:35 0
11 *507:D *96:10 0
12 *507:D *150:20 0.000339316
13 *54:22 *507:D 0
*RES
1 *494:Y *507:D 48.936 
*END

*D_NET *73 0.000891888
*CONN
*I *508:D I *D sg13g2_dfrbpq_1
*I *496:Y O *D sg13g2_inv_1
*CAP
1 *508:D 0.00030961
2 *496:Y 0.00030961
3 *508:D *495:A2 0
4 *508:D *497:A2 0
5 *508:D *576:A 0.000272669
6 *508:D *153:29 0
*RES
1 *496:Y *508:D 43.3578 
*END

*D_NET *74 0.000526169
*CONN
*I *509:D I *D sg13g2_dfrbpq_1
*I *498:Y O *D sg13g2_inv_1
*CAP
1 *509:D 0.000211816
2 *498:Y 0.000211816
3 *509:D *509:RESET_B 0.000102537
4 *509:D *167:10 0
5 result[6] *509:D 0
*RES
1 *498:Y *509:D 42.4823 
*END

*D_NET *75 0.000545059
*CONN
*I *510:D I *D sg13g2_dfrbpq_1
*I *500:Y O *D sg13g2_inv_1
*CAP
1 *510:D 0.000272529
2 *500:Y 0.000272529
3 *510:D *500:A 0
4 *510:D *502:A 0
5 *510:D *510:RESET_B 0
*RES
1 *500:Y *510:D 43.2033 
*END

*D_NET *76 0.000711708
*CONN
*I *511:D I *D sg13g2_dfrbpq_1
*I *502:Y O *D sg13g2_inv_1
*CAP
1 *511:D 0.00034349
2 *502:Y 0.00034349
3 *511:D *502:A 2.4729e-05
*RES
1 *502:Y *511:D 44.1097 
*END

*D_NET *77 0.000592573
*CONN
*I *512:D I *D sg13g2_dfrbpq_1
*I *504:Y O *D sg13g2_inv_1
*CAP
1 *512:D 0
2 *504:Y 0.000296286
3 *77:10 0.000296286
4 *77:10 *501:A1 0
5 *77:10 *512:RESET_B 0
6 *77:10 *158:23 0
*RES
1 *504:Y *77:10 43.2342 
2 *77:10 *512:D 40 
*END

*D_NET *78 0.000254053
*CONN
*I *513:D I *D sg13g2_dfrbpq_1
*I *505:X O *D sg13g2_mux2_1
*CAP
1 *513:D 0.000119298
2 *505:X 0.000119298
3 *513:D *480:B 0
4 *513:D *503:A2 0
5 *513:D *166:111 1.54556e-05
*RES
1 *505:X *513:D 41.236 
*END

*D_NET *79 0.00395503
*CONN
*I *428:B I *D sg13g2_nor2_1
*I *505:A1 I *D sg13g2_mux2_1
*I *427:Y O *D sg13g2_a21oi_1
*CAP
1 *428:B 0
2 *505:A1 0.000649562
3 *427:Y 0
4 *79:27 0.000140023
5 *79:12 0.00134994
6 *79:4 0.000840406
7 *505:A1 *480:B 0
8 *505:A1 *501:A2 0
9 *505:A1 *505:A0 1.54008e-05
10 *505:A1 *514:RESET_B 0
11 *505:A1 *166:10 0
12 *505:A1 *166:111 0
13 *79:12 *427:A2 0
14 *79:12 *501:A2 0
15 *79:12 *531:RESET_B 0
16 *79:12 *587:A 0
17 *79:12 *100:6 0
18 *79:12 *100:59 8.02063e-05
19 *79:12 *110:25 0.000182023
20 *79:12 *166:18 0.00060182
21 *79:12 *168:74 0
22 *79:27 *531:RESET_B 0
23 *79:27 *100:59 6.40723e-05
24 *79:27 *100:74 1.61708e-05
25 *79:27 *115:52 0
26 *79:27 *127:23 0
27 *427:B1 *79:27 1.54008e-05
28 *469:A *79:12 0
*RES
1 *427:Y *79:4 20 
2 *79:4 *79:12 47.9322 
3 *79:12 *505:A1 25.7268 
4 *79:4 *79:27 41.6274 
5 *79:27 *428:B 20 
*END

*D_NET *80 0.00639714
*CONN
*I *433:B I *D sg13g2_nor2_1
*I *503:A2 I *D sg13g2_a22oi_1
*I *432:Y O *D sg13g2_a21oi_1
*CAP
1 *433:B 0
2 *503:A2 0.0015532
3 *432:Y 0.000539281
4 *80:8 0.00209248
5 *503:A2 *429:B 0
6 *503:A2 *430:B_N 0
7 *503:A2 *463:B 0
8 *503:A2 *480:B 0
9 *503:A2 *501:A2 0
10 *503:A2 *513:RESET_B 0
11 *503:A2 *524:RESET_B 0.000241847
12 *503:A2 *82:32 0.000274666
13 *503:A2 *122:12 0
14 *503:A2 *124:16 0
15 *503:A2 *155:14 0.000112136
16 *503:A2 *166:25 0
17 *503:A2 *166:32 0
18 *503:A2 *166:111 0.000177399
19 *503:A2 *167:87 0.000856951
20 *80:8 *432:A2 1.54556e-05
21 *80:8 *530:CLK 0
22 *80:8 *122:6 0
23 *80:8 *122:12 0
24 *80:8 *144:55 0
25 *80:8 *166:96 0
26 *463:A *503:A2 0
27 *513:D *503:A2 0
28 *46:10 *503:A2 0
29 *54:10 *503:A2 0
30 *63:12 *503:A2 0
31 *69:10 *80:8 0.000533727
*RES
1 *432:Y *80:8 25.6444 
2 *80:8 *503:A2 37.1186 
3 *80:8 *433:B 20 
*END

*D_NET *81 0.00662809
*CONN
*I *438:B I *D sg13g2_nor2_1
*I *501:A2 I *D sg13g2_a22oi_1
*I *437:Y O *D sg13g2_a21oi_1
*CAP
1 *438:B 0
2 *501:A2 0.00275903
3 *437:Y 0.000200153
4 *81:10 0.00295918
5 *501:A2 *435:A 0
6 *501:A2 *480:B 0
7 *501:A2 *503:A1 4.77425e-05
8 *501:A2 *505:A0 0
9 *501:A2 *514:RESET_B 0.000371997
10 *501:A2 *514:D 0
11 *501:A2 *530:RESET_B 0.000274583
12 *501:A2 *100:6 0
13 *501:A2 *100:59 0
14 *501:A2 *110:25 0
15 *501:A2 *115:38 0
16 *501:A2 *115:42 0
17 *501:A2 *115:307 0
18 *501:A2 *155:14 0
19 *501:A2 *158:23 0
20 *501:A2 *160:68 0
21 *501:A2 *166:18 0
22 *501:A2 *166:25 0
23 *501:A2 *166:32 0
24 *501:A2 *166:96 0
25 *81:10 *435:A 1.54008e-05
26 *81:10 *437:B1 0
27 *503:A2 *501:A2 0
28 *505:A1 *501:A2 0
29 *51:25 *81:10 0
30 *54:10 *501:A2 0
31 *79:12 *501:A2 0
*RES
1 *437:Y *81:10 22.472 
2 *81:10 *501:A2 46.4098 
3 *81:10 *438:B 20 
*END

*D_NET *82 0.00988736
*CONN
*I *499:A2 I *D sg13g2_a22oi_1
*I *443:B I *D sg13g2_nor2_1
*I *442:Y O *D sg13g2_a21oi_1
*CAP
1 *499:A2 0
2 *443:B 0
3 *442:Y 0.00345045
4 *82:32 0.00268121
5 *82:10 0.000769242
6 *82:10 *440:B_N 8.01116e-05
7 *82:10 *442:B1 0.000177356
8 *82:10 *528:CLK 0
9 *82:10 *115:318 0
10 *82:10 *115:331 0.000339398
11 *82:10 *170:53 0
12 *82:32 *434:B 0
13 *82:32 *460:B_N 0
14 *82:32 *463:B 0
15 *82:32 *481:A 0
16 *82:32 *516:RESET_B 0
17 *82:32 *538:A 0
18 *82:32 *108:10 0.000434542
19 *82:32 *115:94 0.000435742
20 *82:32 *115:100 0
21 *82:32 *115:102 0
22 *82:32 *154:6 4.79124e-05
23 *82:32 *154:38 0.000226633
24 *82:32 *155:10 0
25 *82:32 *158:65 0
26 *82:32 *167:87 0
27 *82:32 *169:20 0
28 *463:A *82:32 0
29 *503:A2 *82:32 0.000274666
30 *46:10 *82:32 0.000144767
31 *54:22 *82:32 0
32 *63:12 *82:10 0.000825329
33 *63:12 *82:32 0
*RES
1 *442:Y *82:10 49.0743 
2 *82:10 *443:B 40 
3 *442:Y *82:32 46.6564 
4 *82:32 *499:A2 20 
*END

*D_NET *83 0.00877395
*CONN
*I *448:B I *D sg13g2_nor2_1
*I *497:A2 I *D sg13g2_a22oi_1
*I *447:Y O *D sg13g2_a21oi_1
*CAP
1 *448:B 0.000193076
2 *497:A2 0.00199775
3 *447:Y 0.000522511
4 *83:10 0.00219083
5 *83:8 0.000522511
6 *448:B *522:CLK 6.46888e-05
7 *448:B *538:A 0.000208195
8 *497:A2 *455:B_N 0.000436713
9 *497:A2 *494:A 4.77425e-05
10 *497:A2 *515:D 0
11 *497:A2 *522:CLK 0.000534023
12 *497:A2 *538:A 0
13 *497:A2 *576:A 0.000143714
14 *497:A2 *86:35 0.000176048
15 *497:A2 *168:55 0
16 *83:8 *434:B 0
17 *83:8 *140:22 0.000235112
18 *83:8 *169:89 0.000285394
19 *458:A *497:A2 0
20 *507:D *497:A2 0
21 *508:D *497:A2 0
22 *527:D *448:B 0.000144768
23 *527:D *497:A2 0.000274643
24 *49:25 *448:B 0.000192794
25 *54:22 *497:A2 0
26 *61:8 *83:8 0.000603436
27 *64:16 *497:A2 0
*RES
1 *447:Y *83:8 46.0358 
2 *83:8 *83:10 20 
3 *83:10 *497:A2 40.9914 
4 *83:10 *448:B 22.266 
*END

*D_NET *84 0.00521206
*CONN
*I *453:B I *D sg13g2_nor2_1
*I *495:A2 I *D sg13g2_a22oi_1
*I *452:Y O *D sg13g2_a21oi_1
*CAP
1 *453:B 0
2 *495:A2 0.0015181
3 *452:Y 0
4 *84:27 0.000321324
5 *84:4 0.00183942
6 *495:A2 *452:A1 4.77083e-05
7 *495:A2 *525:CLK 0.000272272
8 *495:A2 *578:A 0
9 *495:A2 *580:A 0
10 *495:A2 *583:A 7.58489e-05
11 *495:A2 *94:10 0
12 *495:A2 *95:10 0
13 *495:A2 *104:22 0
14 *495:A2 *115:110 0
15 *495:A2 *115:123 0
16 *495:A2 *115:131 0.000337938
17 *495:A2 *150:12 0.000208571
18 *495:A2 *168:10 4.7707e-05
19 *495:A2 *168:36 0.000240118
20 *495:A2 *168:55 0
21 *495:A2 *172:37 0
22 *84:27 *450:A 0
23 *84:27 *450:B_N 1.54008e-05
24 *84:27 *452:A1 4.77425e-05
25 *84:27 *458:B 0.000224511
26 *84:27 *534:A 0
27 *84:27 *100:10 0
28 *84:27 *102:12 0
29 *84:27 *102:16 0
30 *84:27 *172:18 1.54008e-05
31 bit_active[2] *495:A2 0
32 *453:A *84:27 0
33 *508:D *495:A2 0
*RES
1 *452:Y *84:4 20 
2 *84:4 *495:A2 34.6157 
3 *84:4 *84:27 42.9149 
4 *84:27 *453:B 20 
*END

*D_NET *85 0.00452594
*CONN
*I *493:A2 I *D sg13g2_a22oi_1
*I *458:B I *D sg13g2_nor2_1
*I *457:Y O *D sg13g2_a21oi_1
*CAP
1 *493:A2 0
2 *458:B 0.000411202
3 *457:Y 1.28055e-05
4 *85:31 0.000321218
5 *85:23 0.00132646
6 *85:8 0.00142925
7 *458:B *460:B_N 0
8 *458:B *100:25 0.000181335
9 *458:B *102:12 0.000111525
10 *458:B *104:22 0
11 *458:B *138:14 2.19989e-05
12 *85:8 *100:25 7.48106e-05
13 *85:8 *138:14 5.28117e-05
14 *85:31 *493:B2 4.77425e-05
15 *85:31 *541:A 0
16 *85:31 *94:10 0
17 *85:31 *115:123 4.77425e-05
18 *85:31 *115:131 2.20248e-05
19 *85:31 *168:10 0
20 *453:A *458:B 0.000240495
21 *458:A *458:B 0
22 *48:23 *458:B 0
23 *84:27 *458:B 0.000224511
*RES
1 *457:Y *85:8 40.3502 
2 *85:8 *458:B 44.6865 
3 *85:8 *85:23 31.7832 
4 *85:23 *85:31 42.8325 
5 *85:31 *493:A2 20 
*END

*D_NET *86 0.00907647
*CONN
*I *491:A2 I *D sg13g2_a22oi_1
*I *463:B I *D sg13g2_nor2_1
*I *462:Y O *D sg13g2_a21oi_1
*CAP
1 *491:A2 0
2 *463:B 0.000299197
3 *462:Y 0.00103408
4 *86:35 0.00148066
5 *86:16 0.00187431
6 *86:12 0.00112853
7 *463:B *124:33 7.51285e-05
8 *86:12 *445:A 0
9 *86:12 *462:A2 0
10 *86:12 *519:RESET_B 0
11 *86:12 *527:RESET_B 0.000304697
12 *86:16 *122:12 0
13 *86:16 *124:33 0.000266057
14 *86:35 *481:A 0
15 *86:35 *494:A 0
16 *86:35 *538:A 4.68099e-05
17 *86:35 *115:100 0
18 *86:35 *115:102 0
19 *86:35 *124:8 0.000500925
20 *86:35 *124:25 0.000209807
21 *86:35 *154:6 0
22 *86:35 *154:38 0
23 *86:35 *158:65 0
24 *463:A *463:B 0
25 *497:A2 *86:35 0.000176048
26 *503:A2 *463:B 0
27 *507:D *86:35 0
28 *63:12 *463:B 0.00014475
29 *64:16 *86:12 0.00153547
30 *82:32 *463:B 0
*RES
1 *462:Y *86:12 31.0416 
2 *86:12 *86:16 21.339 
3 *86:16 *463:B 42.7707 
4 *86:16 *86:35 35.0483 
5 *86:35 *491:A2 20 
*END

*D_NET *87 0.00300254
*CONN
*I *466:A I *D sg13g2_inv_1
*I *473:B I *D sg13g2_nand3_1
*I *474:A1 I *D sg13g2_o21ai_1
*I *465:X O *D sg13g2_and2_1
*CAP
1 *466:A 0.000387401
2 *473:B 0.000190072
3 *474:A1 0
4 *465:X 0.000122487
5 *87:23 0.000757011
6 *87:14 0.000169722
7 *87:6 0.000471747
8 *466:A *91:8 0
9 *466:A *188:8 0
10 *473:B *91:8 0
11 *473:B *188:8 0
12 *87:6 *125:8 0.000209713
13 *87:6 *166:54 0
14 *87:14 *474:A2 3.04166e-05
15 *87:14 *120:10 0.000342035
16 *87:23 *119:10 1.54008e-05
17 *87:23 *125:8 0.000306531
18 *87:23 *166:54 0
19 *45:23 *87:14 0
*RES
1 *465:X *87:6 21.4008 
2 *87:6 *87:14 42.284 
3 *87:14 *474:A1 20 
4 *87:6 *87:23 22.0497 
5 *87:23 *473:B 41.8334 
6 *87:23 *466:A 43.811 
*END

*D_NET *88 0.00101915
*CONN
*I *474:A2 I *D sg13g2_o21ai_1
*I *468:B I *D sg13g2_nor2_1
*I *467:Y O *D sg13g2_o21ai_1
*CAP
1 *474:A2 0.000322945
2 *468:B 8.13299e-05
3 *467:Y 8.23635e-05
4 *88:6 0.000486639
5 *468:B *467:B1 0
6 *468:B *115:60 0
7 *474:A2 *465:A 0
8 *474:A2 *465:B 0
9 *474:A2 *467:B1 0
10 *474:A2 *474:B1 1.54556e-05
11 *474:A2 *115:60 0
12 *474:A2 *125:8 0
13 *87:14 *474:A2 3.04166e-05
*RES
1 *467:Y *88:6 21.0918 
2 *88:6 *468:B 20.8858 
3 *88:6 *474:A2 23.5638 
*END

*D_NET *89 0.00114978
*CONN
*I *476:B I *D sg13g2_nand2_1
*I *470:B I *D sg13g2_and2_1
*I *469:Y O *D sg13g2_nor2_1
*CAP
1 *476:B 0
2 *470:B 0.000328361
3 *469:Y 0.000214994
4 *89:8 0.000543355
5 *470:B *476:A 0
6 *470:B *604:B 1.54008e-05
7 *470:B *605:A 0
8 *470:B *178:14 0
9 *89:8 *478:B 0
10 *89:8 *166:44 4.76661e-05
*RES
1 *469:Y *89:8 22.2454 
2 *89:8 *470:B 23.0288 
3 *89:8 *476:B 20 
*END

*D_NET *90 0.000668223
*CONN
*I *473:C I *D sg13g2_nand3_1
*I *472:Y O *D sg13g2_nor2_1
*CAP
1 *473:C 0.000218142
2 *472:Y 0.000218142
3 *473:C *602:A 0.000209763
4 *473:C *166:54 2.21754e-05
*RES
1 *472:Y *473:C 42.3175 
*END

*D_NET *91 0.00140393
*CONN
*I *474:B1 I *D sg13g2_o21ai_1
*I *473:Y O *D sg13g2_nand3_1
*CAP
1 *474:B1 0.000116121
2 *473:Y 0.000433378
3 *91:8 0.000549499
4 *474:B1 *120:10 0
5 *474:B1 *175:12 0.000144783
6 *91:8 *187:8 0
7 *466:A *91:8 0
8 *473:B *91:8 0
9 *474:A2 *474:B1 1.54556e-05
10 *45:23 *474:B1 0.000144691
11 *45:23 *91:8 0
*RES
1 *473:Y *91:8 43.811 
2 *91:8 *474:B1 41.4008 
*END

*D_NET *92 0.00101421
*CONN
*I *479:D I *D sg13g2_nor4_1
*I *478:Y O *D sg13g2_nand2b_1
*CAP
1 *479:D 0
2 *478:Y 0.000338731
3 *92:10 0.000338731
4 *428:A *92:10 0
5 *53:12 *92:10 0.000336746
*RES
1 *478:Y *92:10 43.3578 
2 *92:10 *479:D 40 
*END

*D_NET *93 0.000419838
*CONN
*I *492:A I *D sg13g2_inv_1
*I *491:Y O *D sg13g2_a22oi_1
*CAP
1 *492:A 5.82225e-05
2 *491:Y 0.000151697
3 *93:8 0.000209919
4 *93:8 *499:B2 0
5 *93:8 *159:57 0
*RES
1 *491:Y *93:8 41.0918 
2 *93:8 *492:A 40.5356 
*END

*D_NET *94 0.00283499
*CONN
*I *494:A I *D sg13g2_inv_1
*I *493:Y O *D sg13g2_a22oi_1
*CAP
1 *494:A 2.82366e-05
2 *493:Y 0.000695006
3 *94:10 0.000723243
4 *94:10 *542:A 0
5 *94:10 *95:10 0.000498659
6 *94:10 *115:123 0.000240145
7 *94:10 *115:131 0
8 *94:10 *143:16 0
9 *94:10 *159:53 0
10 *495:A2 *94:10 0
11 *497:A2 *494:A 4.77425e-05
12 *39:8 *94:10 0.000601954
13 *54:22 *94:10 0
14 *85:31 *94:10 0
15 *86:35 *494:A 0
*RES
1 *493:Y *94:10 47.9001 
2 *94:10 *494:A 40.3193 
*END

*D_NET *95 0.00240558
*CONN
*I *496:A I *D sg13g2_inv_1
*I *495:Y O *D sg13g2_a22oi_1
*CAP
1 *496:A 0
2 *495:Y 0.000479717
3 *95:10 0.000479717
4 *95:10 *497:B2 0
5 *95:10 *542:A 0.00031706
6 *95:10 *143:16 0.0001816
7 *95:10 *150:12 0.000175986
8 result[5] *95:10 0.000272843
9 *495:A2 *95:10 0
10 *94:10 *95:10 0.000498659
*RES
1 *495:Y *95:10 45.8916 
2 *95:10 *496:A 40 
*END

*D_NET *96 0.0029486
*CONN
*I *498:A I *D sg13g2_inv_1
*I *497:Y O *D sg13g2_a22oi_1
*CAP
1 *498:A 0
2 *497:Y 0.000675063
3 *96:10 0.000675063
4 *96:10 *497:B2 0.000273458
5 *96:10 *115:153 0.00071633
6 *96:10 *150:20 0.00060869
7 *96:10 *167:27 0
8 *507:D *96:10 0
*RES
1 *497:Y *96:10 47.8692 
2 *96:10 *498:A 40 
*END

*D_NET *97 0.00181521
*CONN
*I *500:A I *D sg13g2_inv_1
*I *499:Y O *D sg13g2_a22oi_1
*CAP
1 *500:A 0.000544777
2 *499:Y 0.000165919
3 *97:8 0.000710696
4 *500:A *501:B2 0
5 *500:A *502:A 0
6 *500:A *510:RESET_B 0
7 *500:A *510:CLK 0
8 *500:A *511:CLK 0
9 *500:A *153:8 0
10 *500:A *155:26 0
11 *97:8 *499:B1 0.000318694
12 *97:8 *501:B2 0
13 *97:8 *158:27 7.51285e-05
14 *97:8 *159:57 0
15 *97:8 *167:87 0
16 *506:D *500:A 0
17 *510:D *500:A 0
*RES
1 *499:Y *97:8 42.0806 
2 *97:8 *500:A 45.7268 
*END

*D_NET *98 0.00111551
*CONN
*I *502:A I *D sg13g2_inv_1
*I *501:Y O *D sg13g2_a22oi_1
*CAP
1 *502:A 0.000448954
2 *501:Y 0.000448954
3 *502:A *501:B2 0.000144965
4 *502:A *510:RESET_B 0
5 *502:A *511:CLK 4.79124e-05
6 *502:A *512:RESET_B 0
7 *500:A *502:A 0
8 *510:D *502:A 0
9 *511:D *502:A 2.4729e-05
*RES
1 *501:Y *502:A 45.253 
*END

*D_NET *99 0.00135982
*CONN
*I *504:A I *D sg13g2_inv_1
*I *503:Y O *D sg13g2_a22oi_1
*CAP
1 *504:A 0
2 *503:Y 0.000210522
3 *99:10 0.000210522
4 *99:10 *499:B1 7.52149e-05
5 *99:10 *501:A1 0.000285421
6 *99:10 *511:CLK 0
7 *99:10 *155:14 1.61708e-05
8 *99:10 *155:26 6.39133e-05
9 *99:10 *158:27 0.000338548
10 *99:10 *159:68 0.000159511
*RES
1 *503:Y *99:10 43.3578 
2 *99:10 *504:A 40 
*END

*D_NET *100 0.0126024
*CONN
*I *432:A1 I *D sg13g2_a21oi_1
*I *437:A1 I *D sg13g2_a21oi_1
*I *462:A1 I *D sg13g2_a21oi_1
*I *442:A1 I *D sg13g2_a21oi_1
*I *427:A1 I *D sg13g2_a21oi_1
*I *447:A1 I *D sg13g2_a21oi_1
*I *457:A1 I *D sg13g2_a21oi_1
*I *452:A1 I *D sg13g2_a21oi_1
*I *423:Y O *D sg13g2_inv_1
*CAP
1 *432:A1 0.000108503
2 *437:A1 0
3 *462:A1 0.000259957
4 *442:A1 0
5 *427:A1 0
6 *447:A1 0.000906985
7 *457:A1 4.38604e-05
8 *452:A1 4.15989e-05
9 *423:Y 7.49487e-05
10 *100:82 0.000561167
11 *100:78 0.000688525
12 *100:74 0.00132466
13 *100:59 0.00136367
14 *100:25 0.00105338
15 *100:14 0.00020428
16 *100:10 0.00106589
17 *100:6 0.00161552
18 *432:A1 *166:96 0
19 *447:A1 *447:A2 9.61452e-05
20 *447:A1 *449:B 0.000116643
21 *447:A1 *559:A 0
22 *447:A1 *560:A 0.000340521
23 *447:A1 *123:23 8.00842e-05
24 *447:A1 *138:14 0
25 *447:A1 *140:22 0
26 *447:A1 *164:8 0
27 *447:A1 *164:12 0.00012844
28 *447:A1 *164:22 1.54008e-05
29 *447:A1 *164:48 0
30 *447:A1 *172:12 7.93838e-05
31 *447:A1 *174:29 0
32 *452:A1 *452:A2 1.53666e-05
33 *457:A1 *452:A2 0
34 *457:A1 *103:12 1.54008e-05
35 *462:A1 *437:B1 0
36 *462:A1 *163:10 0.00033839
37 *100:10 *450:A 0.000179006
38 *100:10 *102:12 0.000387526
39 *100:10 *124:16 0
40 *100:10 *159:8 0.000207749
41 *100:10 *160:12 0
42 *100:10 *166:18 0
43 *100:10 *166:38 0
44 *100:14 *172:18 0
45 *100:59 *427:A2 0.000128238
46 *100:59 *115:42 0.00014453
47 *100:59 *115:52 0
48 *100:74 *427:A2 3.1684e-05
49 *100:74 *115:36 0
50 *100:74 *115:38 0
51 *100:74 *115:42 0
52 *100:74 *166:96 0
53 *100:78 *437:A2 1.54008e-05
54 *100:78 *437:B1 1.54556e-05
55 *100:78 *439:B 0
56 *100:78 *122:27 0
57 *100:78 *166:96 0
58 *100:82 *437:B1 0
59 *100:82 *160:78 0.000394566
60 *427:B1 *100:74 0
61 *458:B *100:25 0.000181335
62 *495:A2 *452:A1 4.77083e-05
63 *501:A2 *100:6 0
64 *501:A2 *100:59 0
65 *23:8 *447:A1 4.75265e-05
66 *46:16 *100:10 0
67 *48:23 *100:10 0
68 *62:25 *432:A1 0
69 *63:12 *100:78 0
70 *65:8 *100:10 0
71 *79:12 *100:6 0
72 *79:12 *100:59 8.02063e-05
73 *79:27 *100:59 6.40723e-05
74 *79:27 *100:74 1.61708e-05
75 *84:27 *452:A1 4.77425e-05
76 *84:27 *100:10 0
77 *85:8 *100:25 7.48106e-05
*RES
1 *423:Y *100:6 20.7519 
2 *100:6 *100:10 29.6966 
3 *100:10 *100:14 20.7519 
4 *100:14 *452:A1 20.5356 
5 *100:14 *100:25 21.339 
6 *100:25 *457:A1 40.5356 
7 *100:25 *447:A1 48.8798 
8 *100:6 *100:59 45.4847 
9 *100:59 *427:A1 20 
10 *100:59 *100:74 28.3687 
11 *100:74 *100:78 21.3124 
12 *100:78 *100:82 23.0694 
13 *100:82 *442:A1 40 
14 *100:82 *462:A1 42.575 
15 *100:78 *437:A1 20 
16 *100:74 *432:A1 41.0918 
*END

*D_NET *101 0.000531344
*CONN
*I *475:A1 I *D sg13g2_o21ai_1
*I *425:Y O *D sg13g2_inv_1
*CAP
1 *475:A1 0.000161648
2 *425:Y 0.000161648
3 *475:A1 *589:A 0.000208049
4 *475:A1 *169:62 0
5 *475:A1 *177:10 0
*RES
1 *425:Y *475:A1 41.751 
*END

*D_NET *102 0.00515505
*CONN
*I *462:A2 I *D sg13g2_a21oi_1
*I *535:A I *D sg13g2_buf_1
*I *524:Q O *D sg13g2_dfrbpq_1
*CAP
1 *462:A2 0.0011383
2 *535:A 0
3 *524:Q 0.000313916
4 *102:29 0.00146801
5 *102:16 0.000452179
6 *102:12 0.000436382
7 *462:A2 *445:A 0
8 *462:A2 *519:RESET_B 0.000304407
9 *462:A2 *527:RESET_B 0
10 *462:A2 *569:A 0
11 *462:A2 *115:273 0
12 *462:A2 *115:284 0
13 *462:A2 *142:8 0
14 *462:A2 *169:10 4.7274e-05
15 *102:16 *172:18 0.000176189
16 *102:29 *445:A 0.000143531
17 *102:29 *122:12 0
18 *102:29 *124:33 0
19 *102:29 *172:18 0.000175817
20 *458:B *102:12 0.000111525
21 *84:27 *102:12 0
22 *84:27 *102:16 0
23 *86:12 *462:A2 0
24 *100:10 *102:12 0.000387526
*RES
1 *524:Q *102:12 43.3681 
2 *102:12 *102:16 21.1845 
3 *102:16 *535:A 20 
4 *102:16 *102:29 43.0179 
5 *102:29 *462:A2 31.3918 
*END

*D_NET *103 0.000921581
*CONN
*I *459:B I *D sg13g2_and2_1
*I *457:A2 I *D sg13g2_a21oi_1
*I *525:Q O *D sg13g2_dfrbpq_1
*CAP
1 *459:B 0.000113915
2 *457:A2 0
3 *525:Q 0.000171785
4 *103:12 0.000281305
5 *103:8 0.000339175
6 *103:12 *452:A2 0
7 *103:12 *164:22 0
8 *103:12 *165:8 0
9 *457:A1 *103:12 1.54008e-05
*RES
1 *525:Q *103:8 41.5862 
2 *103:8 *103:12 21.6171 
3 *103:12 *457:A2 20 
4 *103:12 *459:B 21.3416 
*END

*D_NET *104 0.0024485
*CONN
*I *454:B I *D sg13g2_and2_1
*I *452:A2 I *D sg13g2_a21oi_1
*I *526:Q O *D sg13g2_dfrbpq_1
*CAP
1 *454:B 0.000201598
2 *452:A2 0.000196878
3 *526:Q 0.000202634
4 *104:22 0.00062521
5 *104:8 0.000832564
6 *454:B *115:210 0
7 *454:B *164:22 0.000304544
8 *104:22 *460:B_N 0
9 *104:22 *525:CLK 0
10 *104:22 *115:210 6.97006e-05
11 *104:22 *164:22 0
12 *104:22 *172:37 0
13 bit_active[0] *104:8 0
14 bit_active[2] *104:8 0
15 bit_active[2] *104:22 0
16 *452:A1 *452:A2 1.53666e-05
17 *457:A1 *452:A2 0
18 *458:B *104:22 0
19 *495:A2 *104:22 0
20 *103:12 *452:A2 0
*RES
1 *526:Q *104:8 42.0806 
2 *104:8 *104:22 43.8487 
3 *104:22 *452:A2 41.8334 
4 *104:8 *454:B 42.0497 
*END

*D_NET *105 0.00125474
*CONN
*I *447:A2 I *D sg13g2_a21oi_1
*I *449:B I *D sg13g2_and2_1
*I *527:Q O *D sg13g2_dfrbpq_1
*CAP
1 *447:A2 0.00017576
2 *449:B 0.000126262
3 *527:Q 8.29356e-05
4 *105:10 0.000302022
5 *105:8 8.29356e-05
6 *447:A2 *164:67 0.000240746
7 *449:B *164:67 3.12899e-05
8 *105:8 *135:8 0
9 *447:A1 *447:A2 9.61452e-05
10 *447:A1 *449:B 0.000116643
11 *485:B *447:A2 0
*RES
1 *527:Q *105:8 40.5974 
2 *105:8 *105:10 20 
3 *105:10 *449:B 21.6635 
4 *105:10 *447:A2 21.9673 
*END

*D_NET *106 0.00349477
*CONN
*I *444:B I *D sg13g2_and2_1
*I *442:A2 I *D sg13g2_a21oi_1
*I *528:Q O *D sg13g2_dfrbpq_1
*CAP
1 *444:B 0
2 *442:A2 0
3 *528:Q 0.000695484
4 *106:18 0.000275142
5 *106:10 0.000970626
6 *106:10 *444:A 8.00842e-05
7 *106:10 *516:RESET_B 0.000727896
8 *106:10 *137:20 0
9 *106:10 *170:10 0
10 *106:18 *437:B1 0
11 *106:18 *442:B1 8.03417e-05
12 *106:18 *516:RESET_B 0.000339135
13 *106:18 *170:25 0.000181192
14 *60:12 *106:10 0.000144872
*RES
1 *528:Q *106:10 27.6941 
2 *106:10 *106:18 43.1106 
3 *106:18 *442:A2 20 
4 *106:10 *444:B 20 
*END

*D_NET *107 0.000452965
*CONN
*I *439:A I *D sg13g2_and2_1
*I *437:A2 I *D sg13g2_a21oi_1
*I *529:Q O *D sg13g2_dfrbpq_1
*CAP
1 *439:A 4.72978e-05
2 *437:A2 0.000171484
3 *529:Q 0.000218782
4 *437:A2 *437:B1 0
5 *437:A2 *439:B 0
6 *521:D *437:A2 0
7 *100:78 *437:A2 1.54008e-05
*RES
1 *529:Q *437:A2 41.6171 
2 *529:Q *439:A 40.5974 
*END

*D_NET *108 0.00176728
*CONN
*I *434:A I *D sg13g2_and2_1
*I *432:A2 I *D sg13g2_a21oi_1
*I *530:Q O *D sg13g2_dfrbpq_1
*CAP
1 *434:A 0
2 *432:A2 0.000206306
3 *530:Q 0.000332238
4 *108:10 0.000538544
5 *432:A2 *144:55 0
6 *108:10 *538:A 0
7 *108:10 *169:20 0.000240196
8 *62:25 *432:A2 0
9 *63:12 *432:A2 0
10 *80:8 *432:A2 1.54556e-05
11 *82:32 *108:10 0.000434542
*RES
1 *530:Q *108:10 43.5123 
2 *108:10 *432:A2 41.8746 
3 *108:10 *434:A 40 
*END

*D_NET *109 0.0019234
*CONN
*I *427:A2 I *D sg13g2_a21oi_1
*I *429:B I *D sg13g2_and2_1
*I *531:Q O *D sg13g2_dfrbpq_1
*CAP
1 *427:A2 0.000151589
2 *429:B 0.00014098
3 *531:Q 0.00048381
4 *109:20 0.000494419
5 *427:A2 *115:42 0
6 *429:B *430:B_N 0
7 *429:B *166:32 0.000242137
8 *429:B *166:96 1.54008e-05
9 *109:20 *115:44 0
10 *109:20 *115:52 0
11 *109:20 *115:79 0
12 *109:20 *160:68 0.000235141
13 *503:A2 *429:B 0
14 *52:29 *109:20 0
15 *79:12 *427:A2 0
16 *100:59 *427:A2 0.000128238
17 *100:74 *427:A2 3.1684e-05
*RES
1 *531:Q *429:B 41.6171 
2 *531:Q *109:20 43.0694 
3 *109:20 *427:A2 41.4008 
*END

*D_NET *110 0.0023426
*CONN
*I *423:A I *D sg13g2_inv_1
*I *588:B I *D sg13g2_nor2_1
*I *587:Y O *D sg13g2_nor2_1
*CAP
1 *423:A 0
2 *588:B 0
3 *587:Y 0
4 *110:25 0.000268196
5 *110:12 0.000454616
6 *110:4 0.000722812
7 *110:12 *471:A_N 0.000106333
8 *110:12 *587:A 0
9 *110:12 *605:A 0
10 *110:12 *118:10 0.000608619
11 *110:25 *476:A 0
12 *110:25 *168:74 0
13 *501:A2 *110:25 0
14 *79:12 *110:25 0.000182023
*RES
1 *587:Y *110:4 20 
2 *110:4 *110:12 45.4281 
3 *110:12 *588:B 20 
4 *110:4 *110:25 42.6477 
5 *110:25 *423:A 20 
*END

*D_NET *111 0.000454612
*CONN
*I *587:A I *D sg13g2_nor2_1
*I *471:Y O *D sg13g2_nand3b_1
*CAP
1 *587:A 0.000219606
2 *471:Y 0.000219606
3 *587:A *471:B 1.54008e-05
4 *587:A *605:A 0
5 *587:A *166:18 0
6 *79:12 *587:A 0
7 *110:12 *587:A 0
*RES
1 *471:Y *587:A 41.9673 
*END

*D_NET *112 0.000589034
*CONN
*I *588:A I *D sg13g2_nor2_1
*I *468:Y O *D sg13g2_nor2_1
*CAP
1 *588:A 0
2 *468:Y 0.000294517
3 *112:10 0.000294517
4 *112:10 *115:60 0
5 *112:10 *132:25 0
*RES
1 *468:Y *112:10 42.9561 
2 *112:10 *588:A 40 
*END

*D_NET *113 0.00216191
*CONN
*I *589:A I *D sg13g2_dlygate4sd3_1
*I *478:A_N I *D sg13g2_nand2b_1
*I *592:B I *D sg13g2_nor2_1
*I *591:Y O *D sg13g2_nor2_1
*CAP
1 *589:A 0.000167473
2 *478:A_N 4.96519e-05
3 *592:B 0
4 *591:Y 0.000133753
5 *113:16 0.000290858
6 *113:8 0.000542432
7 *589:A *126:10 0.000304852
8 *589:A *177:10 0
9 *113:8 *175:12 0.000289234
10 *113:16 *591:B 0.000175608
11 *113:16 *603:A 0
12 *113:16 *127:12 0
13 *475:A1 *589:A 0.000208049
14 *53:12 *113:16 0
*RES
1 *591:Y *113:8 41.8334 
2 *113:8 *113:16 22.5029 
3 *113:16 *592:B 20 
4 *113:16 *478:A_N 20.5974 
5 *113:8 *589:A 42.0497 
*END

*D_NET *114 0.000308951
*CONN
*I *591:A I *D sg13g2_nor2_1
*I *475:Y O *D sg13g2_o21ai_1
*CAP
1 *591:A 0.000146775
2 *475:Y 0.000146775
3 *591:A *596:A 0
4 *591:A *169:62 0
5 *591:A *175:12 1.54008e-05
6 *591:A *177:10 0
*RES
1 *475:Y *591:A 41.6274 
*END

*D_NET *115 0.0393184
*CONN
*I *516:CLK I *D sg13g2_dfrbpq_1
*I *528:CLK I *D sg13g2_dfrbpq_1
*I *520:CLK I *D sg13g2_dfrbpq_1
*I *521:CLK I *D sg13g2_dfrbpq_1
*I *529:CLK I *D sg13g2_dfrbpq_1
*I *523:CLK I *D sg13g2_dfrbpq_1
*I *518:CLK I *D sg13g2_dfrbpq_1
*I *517:CLK I *D sg13g2_dfrbpq_1
*I *519:CLK I *D sg13g2_dfrbpq_1
*I *527:CLK I *D sg13g2_dfrbpq_1
*I *522:CLK I *D sg13g2_dfrbpq_1
*I *524:CLK I *D sg13g2_dfrbpq_1
*I *514:CLK I *D sg13g2_dfrbpq_1
*I *513:CLK I *D sg13g2_dfrbpq_1
*I *526:CLK I *D sg13g2_dfrbpq_1
*I *525:CLK I *D sg13g2_dfrbpq_1
*I *508:CLK I *D sg13g2_dfrbpq_1
*I *506:CLK I *D sg13g2_dfrbpq_1
*I *510:CLK I *D sg13g2_dfrbpq_1
*I *512:CLK I *D sg13g2_dfrbpq_1
*I *511:CLK I *D sg13g2_dfrbpq_1
*I *507:CLK I *D sg13g2_dfrbpq_1
*I *509:CLK I *D sg13g2_dfrbpq_1
*I *515:CLK I *D sg13g2_dfrbpq_1
*I *530:CLK I *D sg13g2_dfrbpq_1
*I *531:CLK I *D sg13g2_dfrbpq_1
*I *469:B I *D sg13g2_nor2_1
*I *597:A I *D sg13g2_dlygate4sd3_1
*I *425:A I *D sg13g2_inv_1
*I *479:B I *D sg13g2_nor4_1
*I *590:X O *D sg13g2_dlygate4sd3_1
*CAP
1 *516:CLK 0.000246988
2 *528:CLK 0.000366676
3 *520:CLK 0
4 *521:CLK 0
5 *529:CLK 0
6 *523:CLK 0
7 *518:CLK 0.000210553
8 *517:CLK 0
9 *519:CLK 0
10 *527:CLK 0
11 *522:CLK 0.000314255
12 *524:CLK 0
13 *514:CLK 0
14 *513:CLK 0
15 *526:CLK 0
16 *525:CLK 0.00021928
17 *508:CLK 0
18 *506:CLK 2.58084e-05
19 *510:CLK 0.000227166
20 *512:CLK 0
21 *511:CLK 0.00018119
22 *507:CLK 0.000243026
23 *509:CLK 0
24 *515:CLK 0
25 *530:CLK 0.000194588
26 *531:CLK 0
27 *469:B 0
28 *597:A 0
29 *425:A 0
30 *479:B 0.000185835
31 *590:X 2.96948e-05
32 *115:340 0.000801215
33 *115:331 0.00052179
34 *115:318 0.00085062
35 *115:307 0.000981338
36 *115:284 0.000876559
37 *115:273 0.00109534
38 *115:262 0.000866072
39 *115:247 0.000806538
40 *115:235 0.000231864
41 *115:210 0.000468938
42 *115:174 0.000330085
43 *115:157 0.000711417
44 *115:155 0.000843401
45 *115:153 0.00070537
46 *115:135 0.000479971
47 *115:131 0.000801814
48 *115:123 0.000736623
49 *115:110 0.000628216
50 *115:108 0.00115359
51 *115:102 0.000928445
52 *115:100 0.000864601
53 *115:94 0.000773321
54 *115:90 0.00061872
55 *115:79 0.000734182
56 *115:60 0.000894544
57 *115:52 0.00143751
58 *115:44 0.000638399
59 *115:42 0.000868291
60 *115:38 0.000796958
61 *115:36 0.00102359
62 *115:27 0.000143307
63 *115:14 0.000687958
64 *115:8 0.00058854
65 *479:B *126:10 0
66 *479:B *127:23 4.76247e-05
67 *479:B *169:62 0
68 *506:CLK *572:A 4.77702e-05
69 *506:CLK *152:14 4.77702e-05
70 *507:CLK *493:B2 0.000262541
71 *507:CLK *507:RESET_B 0
72 *511:CLK *158:27 0
73 *511:CLK *167:33 0
74 *516:CLK *137:20 0
75 *516:CLK *141:12 0
76 *518:CLK *144:32 0.000272636
77 *518:CLK *162:37 0
78 *522:CLK *538:A 0.000598712
79 *528:CLK *528:RESET_B 0
80 *530:CLK *430:A 8.01776e-05
81 *115:8 *590:A 0
82 *115:14 *590:A 0
83 *115:27 *126:10 0.000235376
84 *115:44 *166:38 0
85 *115:52 *424:A 0
86 *115:52 *166:38 0
87 *115:52 *166:44 0
88 *115:60 *478:B 0
89 *115:60 *604:B 0
90 *115:60 *118:10 0
91 *115:60 *132:25 0
92 *115:60 *166:44 0
93 *115:60 *178:14 0
94 *115:79 *123:8 0
95 *115:79 *166:38 0
96 *115:90 *122:12 0.000287672
97 *115:90 *123:8 0
98 *115:90 *123:23 0
99 *115:94 *538:A 0
100 *115:94 *124:25 0.000404225
101 *115:100 *460:B_N 8.00842e-05
102 *115:100 *124:8 0.000371439
103 *115:100 *124:25 3.23694e-05
104 *115:108 *455:B_N 0
105 *115:108 *505:A0 0
106 *115:108 *580:A 0
107 *115:110 *580:A 0
108 *115:110 *164:22 0
109 *115:123 *541:A 0
110 *115:123 *550:A 0
111 *115:131 *493:A1 0.000112426
112 *115:131 *167:115 0.000234158
113 *115:135 *493:B2 0
114 *115:135 *507:RESET_B 0
115 *115:153 *493:B1 0.000235075
116 *115:153 *150:20 0
117 *115:153 *158:71 0.000797868
118 *115:155 *155:26 0
119 *115:155 *158:71 0.00012816
120 *115:155 *167:29 0
121 *115:155 *167:31 0
122 *115:157 *501:B2 0
123 *115:157 *167:31 0
124 *115:235 *455:A 0
125 *115:235 *154:38 0
126 *115:235 *160:31 0
127 *115:247 *122:12 0.000159096
128 *115:262 *445:A 0.000272272
129 *115:262 *122:12 0.000793117
130 *115:262 *172:18 0.000111758
131 *115:273 *445:A 0.000224683
132 *115:273 *445:B_N 0.000207605
133 *115:273 *173:18 6.43908e-05
134 *115:284 *436:B 0
135 *115:284 *490:B 4.75265e-05
136 *115:284 *555:A 0
137 *115:284 *134:18 0
138 *115:284 *142:8 0
139 *115:284 *144:18 6.03998e-06
140 *115:284 *144:32 0
141 *115:284 *162:37 0.000352727
142 *115:284 *169:10 0
143 *115:284 *173:18 0.000175935
144 *115:318 *529:RESET_B 0
145 *115:318 *170:25 0
146 *115:318 *170:53 0
147 *115:331 *442:B1 0.000339524
148 *115:331 *170:25 0
149 *115:331 *174:8 0
150 *115:340 *442:B1 0.000112727
151 *115:340 *516:RESET_B 0
152 bit_active[0] *115:108 0.000286526
153 bit_active[2] *115:210 0.00017551
154 dac_code[1] *115:284 7.91199e-05
155 *427:A2 *115:42 0
156 *427:B1 *115:36 0
157 *448:B *522:CLK 6.46888e-05
158 *454:B *115:210 0
159 *462:A2 *115:273 0
160 *462:A2 *115:284 0
161 *468:B *115:60 0
162 *469:A *115:52 0.000337158
163 *474:A2 *115:60 0
164 *489:B *115:273 0
165 *495:A2 *525:CLK 0.000272272
166 *495:A2 *115:110 0
167 *495:A2 *115:123 0
168 *495:A2 *115:131 0.000337938
169 *497:A2 *522:CLK 0.000534023
170 *500:A *510:CLK 0
171 *500:A *511:CLK 0
172 *501:A2 *115:38 0
173 *501:A2 *115:42 0
174 *501:A2 *115:307 0
175 *502:A *511:CLK 4.79124e-05
176 *506:D *510:CLK 0
177 *521:D *115:307 0
178 *521:D *115:318 0
179 *51:25 *115:307 0.000209422
180 *52:16 *115:79 0.000125175
181 *52:16 *115:90 0.00033998
182 *52:29 *530:CLK 0
183 *53:12 *479:B 1.53311e-05
184 *62:46 *115:284 0
185 *63:12 *115:340 0
186 *79:27 *115:52 0
187 *80:8 *530:CLK 0
188 *82:10 *528:CLK 0
189 *82:10 *115:318 0
190 *82:10 *115:331 0.000339398
191 *82:32 *115:94 0.000435742
192 *82:32 *115:100 0
193 *82:32 *115:102 0
194 *85:31 *115:123 4.77425e-05
195 *85:31 *115:131 2.20248e-05
196 *86:35 *115:100 0
197 *86:35 *115:102 0
198 *94:10 *115:123 0.000240145
199 *94:10 *115:131 0
200 *96:10 *115:153 0.00071633
201 *99:10 *511:CLK 0
202 *100:59 *115:42 0.00014453
203 *100:59 *115:52 0
204 *100:74 *115:36 0
205 *100:74 *115:38 0
206 *100:74 *115:42 0
207 *104:22 *525:CLK 0
208 *104:22 *115:210 6.97006e-05
209 *109:20 *115:44 0
210 *109:20 *115:52 0
211 *109:20 *115:79 0
212 *112:10 *115:60 0
*RES
1 *590:X *115:8 40.3193 
2 *115:8 *115:14 23.7286 
3 *115:14 *479:B 21.8334 
4 *115:14 *115:27 41.8334 
5 *115:27 *425:A 20 
6 *115:8 *115:36 22.3278 
7 *115:36 *115:38 3.1312 
8 *115:38 *115:42 23.9964 
9 *115:42 *115:44 0.8446 
10 *115:44 *115:52 25.6856 
11 *115:52 *115:60 49.2906 
12 *115:60 *597:A 20 
13 *115:52 *469:B 20 
14 *115:44 *531:CLK 40 
15 *115:42 *115:79 3.0694 
16 *115:79 *530:CLK 41.8334 
17 *115:79 *115:90 3.0694 
18 *115:90 *115:94 23.9964 
19 *115:94 *115:100 4.4496 
20 *115:100 *115:102 2.266 
21 *115:102 *115:108 46.283 
22 *115:108 *115:110 1.6486 
23 *115:110 *515:CLK 20 
24 *115:110 *115:123 4.7998 
25 *115:123 *115:131 43.5741 
26 *115:131 *115:135 2.4617 
27 *115:135 *509:CLK 20 
28 *115:135 *507:CLK 22.6162 
29 *115:131 *115:153 24.7998 
30 *115:153 *115:155 3.811 
31 *115:155 *115:157 1.8334 
32 *115:157 *511:CLK 41.6583 
33 *115:157 *115:174 44.2127 
34 *115:174 *512:CLK 40 
35 *115:155 *510:CLK 42.4617 
36 *115:153 *506:CLK 40.3193 
37 *115:123 *508:CLK 20 
38 *115:108 *115:210 2.6162 
39 *115:210 *525:CLK 22.4308 
40 *115:210 *526:CLK 20 
41 *115:102 *513:CLK 20 
42 *115:100 *115:235 42.8222 
43 *115:235 *514:CLK 20 
44 *115:94 *524:CLK 20 
45 *115:90 *115:247 0.8446 
46 *115:247 *522:CLK 43.9964 
47 *115:247 *115:262 25.6444 
48 *115:262 *527:CLK 20 
49 *115:262 *115:273 4.4496 
50 *115:273 *519:CLK 20 
51 *115:273 *115:284 6.8598 
52 *115:284 *517:CLK 20 
53 *115:284 *518:CLK 22.1836 
54 *115:38 *523:CLK 20 
55 *115:36 *115:307 5.2118 
56 *115:307 *529:CLK 20 
57 *115:307 *115:318 25.6444 
58 *115:318 *521:CLK 40 
59 *115:318 *115:331 24.0994 
60 *115:331 *520:CLK 20 
61 *115:331 *115:340 21.8334 
62 *115:340 *528:CLK 44.3466 
63 *115:340 *516:CLK 42.575 
*END

*D_NET *116 0.000115806
*CONN
*I *470:A I *D sg13g2_and2_1
*I *599:X O *D sg13g2_dlygate4sd3_1
*CAP
1 *470:A 5.79028e-05
2 *599:X 5.79028e-05
*RES
1 *599:X *470:A 40.5974 
*END

*D_NET *117 0.000574495
*CONN
*I *604:A I *D sg13g2_nor2_1
*I *476:Y O *D sg13g2_nand2_1
*CAP
1 *604:A 0
2 *476:Y 7.98669e-05
3 *117:8 7.98669e-05
4 *117:8 *178:14 0.000234158
5 *117:8 *189:8 0.000180603
*RES
1 *476:Y *117:8 41.339 
2 *117:8 *604:A 40 
*END

*D_NET *118 0.00216712
*CONN
*I *471:A_N I *D sg13g2_nand3b_1
*I *605:A I *D sg13g2_nor2_1
*I *470:X O *D sg13g2_and2_1
*CAP
1 *471:A_N 0.000219789
2 *605:A 0.00022827
3 *470:X 0.000254154
4 *118:10 0.000702213
5 *471:A_N *476:A 0
6 *471:A_N *166:18 4.77425e-05
7 *605:A *476:A 0
8 *118:10 *599:A 0
9 *470:B *605:A 0
10 *587:A *605:A 0
11 *110:12 *471:A_N 0.000106333
12 *110:12 *605:A 0
13 *110:12 *118:10 0.000608619
14 *115:60 *118:10 0
*RES
1 *470:X *118:10 43.3578 
2 *118:10 *605:A 41.6863 
3 *118:10 *471:A_N 42.1527 
*END

*D_NET *119 0.00060901
*CONN
*I *600:A I *D sg13g2_dlygate4sd3_1
*I *473:A I *D sg13g2_nand3_1
*I *596:X O *D sg13g2_dlygate4sd3_1
*CAP
1 *600:A 0
2 *473:A 5.2983e-05
3 *596:X 0.000243822
4 *119:10 0.000296805
5 *119:10 *125:8 0
6 *119:10 *166:54 0
7 *87:23 *119:10 1.54008e-05
*RES
1 *596:X *119:10 22.5647 
2 *119:10 *473:A 20.5974 
3 *119:10 *600:A 20 
*END

*D_NET *120 0.00156155
*CONN
*I *472:B I *D sg13g2_nor2_1
*I *603:X O *D sg13g2_dlygate4sd3_1
*CAP
1 *472:B 0
2 *603:X 0.000306367
3 *120:10 0.000306367
4 *120:10 *601:A 0
5 *474:B1 *120:10 0
6 *45:23 *120:10 0.00060678
7 *87:14 *120:10 0.000342035
*RES
1 *603:X *120:10 44.223 
2 *120:10 *472:B 40 
*END

*D_NET *121 0.00280635
*CONN
*I *468:A I *D sg13g2_nor2_1
*I *465:A I *D sg13g2_and2_1
*I *467:A1 I *D sg13g2_o21ai_1
*I *464:A I *D sg13g2_nor2_1
*I *545:X O *D sg13g2_buf_1
*CAP
1 *468:A 0.000116254
2 *465:A 0.000122585
3 *467:A1 0
4 *464:A 0
5 *545:X 0.00087373
6 *121:28 0.000272628
7 *121:19 0.000138232
8 *121:10 0.000978174
9 *465:A *465:B 8.01176e-05
10 *465:A *467:B1 4.77154e-05
11 *468:A *166:44 0
12 *121:10 *132:12 0
13 *121:10 *166:54 0
14 *121:19 *166:54 0
15 *474:A2 *465:A 0
16 *545:A *121:10 0
17 *45:9 *121:10 0.000176914
*RES
1 *545:X *121:10 49.9086 
2 *121:10 *464:A 40 
3 *121:10 *121:19 1.0918 
4 *121:19 *467:A1 40 
5 *121:19 *121:28 0.3502 
6 *121:28 *465:A 41.5038 
7 *121:28 *468:A 41.339 
*END

*D_NET *122 0.00704569
*CONN
*I *435:B_N I *D sg13g2_nor2b_1
*I *548:A I *D sg13g2_buf_1
*I *434:X O *D sg13g2_and2_1
*CAP
1 *435:B_N 0
2 *548:A 0
3 *434:X 0.000195455
4 *122:27 0.00080862
5 *122:12 0.000904142
6 *122:6 0.00190822
7 *122:6 *522:RESET_B 8.01776e-05
8 *122:12 *123:23 0
9 *122:12 *124:33 0
10 *122:12 *172:12 0
11 *122:27 *437:B1 0
12 *122:27 *160:68 0
13 *122:27 *166:96 0.000468182
14 *122:27 *169:26 0.000554491
15 *503:A2 *122:12 0
16 *52:16 *122:12 4.77425e-05
17 *52:29 *122:27 0
18 *63:12 *122:6 0.000305011
19 *63:12 *122:12 0.000533766
20 *69:10 *122:12 0
21 *80:8 *122:6 0
22 *80:8 *122:12 0
23 *86:16 *122:12 0
24 *100:78 *122:27 0
25 *102:29 *122:12 0
26 *115:90 *122:12 0.000287672
27 *115:247 *122:12 0.000159096
28 *115:262 *122:12 0.000793117
*RES
1 *434:X *122:6 22.0497 
2 *122:6 *122:12 30.3412 
3 *122:12 *548:A 40 
4 *122:6 *122:27 49.1979 
5 *122:27 *435:B_N 20 
*END

*D_NET *123 0.00525974
*CONN
*I *549:A I *D sg13g2_buf_1
*I *430:B_N I *D sg13g2_nor2b_1
*I *429:X O *D sg13g2_and2_1
*CAP
1 *549:A 0
2 *430:B_N 0.000180009
3 *429:X 5.64876e-05
4 *123:23 0.000642238
5 *123:8 0.000878734
6 *123:8 *160:12 0.000181827
7 *123:23 *124:33 0.00129276
8 *123:23 *160:8 0.000178154
9 *123:23 *160:12 0.00143106
10 *123:23 *164:56 0
11 bit_active[6] *123:23 0.000338389
12 *429:B *430:B_N 0
13 *447:A1 *123:23 8.00842e-05
14 *503:A2 *430:B_N 0
15 *52:8 *430:B_N 0
16 *115:79 *123:8 0
17 *115:90 *123:8 0
18 *115:90 *123:23 0
19 *122:12 *123:23 0
*RES
1 *429:X *123:8 40.8446 
2 *123:8 *430:B_N 41.6171 
3 *123:8 *123:23 30.5266 
4 *123:23 *549:A 20 
*END

*D_NET *124 0.0106554
*CONN
*I *538:A I *D sg13g2_buf_1
*I *539:A I *D sg13g2_buf_1
*I *540:A I *D sg13g2_buf_1
*I *514:Q O *D sg13g2_dfrbpq_1
*CAP
1 *538:A 0.00121037
2 *539:A 0
3 *540:A 0
4 *514:Q 0.000316246
5 *124:33 0.000510032
6 *124:25 0.00201791
7 *124:16 0.000458003
8 *124:8 0.00107176
9 *538:A *444:A 0
10 *538:A *516:RESET_B 0.000427429
11 *538:A *163:10 4.79124e-05
12 *538:A *169:14 2.43395e-05
13 *538:A *169:20 0.000112426
14 *124:16 *524:RESET_B 0
15 *124:16 *166:10 0
16 *124:16 *166:111 0
17 *124:16 *168:70 0
18 *124:33 *136:10 0.000111782
19 *448:B *538:A 0.000208195
20 *463:B *124:33 7.51285e-05
21 *497:A2 *538:A 0
22 *503:A2 *124:16 0
23 *519:D *538:A 0
24 *522:CLK *538:A 0.000598712
25 *46:16 *124:16 0.000340704
26 *64:16 *538:A 0
27 *82:32 *538:A 0
28 *86:16 *124:33 0.000266057
29 *86:35 *538:A 4.68099e-05
30 *86:35 *124:8 0.000500925
31 *86:35 *124:25 0.000209807
32 *100:10 *124:16 0
33 *102:29 *124:33 0
34 *108:10 *538:A 0
35 *115:94 *538:A 0
36 *115:94 *124:25 0.000404225
37 *115:100 *124:8 0.000371439
38 *115:100 *124:25 3.23694e-05
39 *122:12 *124:33 0
40 *123:23 *124:33 0.00129276
*RES
1 *514:Q *124:8 23.6977 
2 *124:8 *124:16 44.9028 
3 *124:16 *540:A 20 
4 *124:8 *124:25 3.2651 
5 *124:25 *124:33 46.7877 
6 *124:33 *539:A 20 
7 *124:25 *538:A 30.7249 
*END

*D_NET *125 0.00861383
*CONN
*I *551:A I *D sg13g2_buf_1
*I *464:Y O *D sg13g2_nor2_1
*CAP
1 *551:A 0
2 *464:Y 0.00242801
3 *125:12 0.00151583
4 *125:8 0.00394385
5 *125:8 *464:B 0
6 *125:8 *465:B 0.000209895
7 *125:8 *532:A 0
8 *125:8 *594:A 0
9 *125:8 *596:A 0
10 *125:8 *601:A 0
11 *125:8 *132:25 0
12 *125:8 *147:10 0
13 *125:8 *166:54 0
14 *125:8 *177:10 0
15 *125:8 *182:10 0
16 *125:12 *143:37 0
17 *474:A2 *125:8 0
18 *45:9 *125:8 0
19 *45:23 *125:8 0
20 *87:6 *125:8 0.000209713
21 *87:23 *125:8 0.000306531
22 *119:10 *125:8 0
*RES
1 *464:Y *125:8 46.1929 
2 *125:8 *125:12 39.6318 
3 *125:12 *551:A 40 
*END

*D_NET *126 0.00247178
*CONN
*I *552:A I *D sg13g2_buf_1
*I *479:Y O *D sg13g2_nor4_1
*CAP
1 *552:A 0
2 *479:Y 0.000794967
3 *126:10 0.000794967
4 *126:10 *591:B 0
5 *126:10 *175:12 0
6 *126:10 *182:10 0.00034162
7 *479:B *126:10 0
8 *589:A *126:10 0.000304852
9 *115:27 *126:10 0.000235376
*RES
1 *479:Y *126:10 49.7541 
2 *126:10 *552:A 40 
*END

*D_NET *127 0.00944265
*CONN
*I *553:A I *D sg13g2_buf_1
*I *479:C I *D sg13g2_nor4_1
*I *466:Y O *D sg13g2_inv_1
*CAP
1 *553:A 0
2 *479:C 0
3 *466:Y 0.00016938
4 *127:33 3.67529e-05
5 *127:27 0.00173401
6 *127:23 0.00307835
7 *127:12 0.00155757
8 *127:8 0.000345851
9 *127:12 *591:B 0
10 *127:23 *434:B 0.00107936
11 *127:23 *144:55 0
12 *127:23 *169:26 0
13 *127:23 *169:30 0
14 *127:23 *169:62 0.000556913
15 cmp_fault *127:33 0
16 *427:B1 *127:23 0
17 *479:B *127:23 4.76247e-05
18 *49:8 *127:23 0.000655142
19 *53:12 *127:12 0
20 *62:25 *127:23 0
21 *69:10 *127:23 0.000181694
22 *79:27 *127:23 0
23 *113:16 *127:12 0
*RES
1 *466:Y *127:8 41.8334 
2 *127:8 *127:12 21.4008 
3 *127:12 *479:C 20 
4 *127:12 *127:23 35.4706 
5 *127:23 *127:27 37.407 
6 *127:27 *127:33 40.3502 
7 *127:33 *553:A 20 
*END

*D_NET *128 0.000900596
*CONN
*I *554:A I *D sg13g2_buf_1
*I *482:Y O *D sg13g2_nand2_1
*CAP
1 *554:A 0.000125822
2 *482:Y 8.5121e-05
3 *128:10 0.000210943
4 *128:10 *133:30 0
5 *17:12 *554:A 0.000143171
6 *28:10 *128:10 0.000127823
7 *29:14 *554:A 0.000207715
8 *30:10 *554:A 0
*RES
1 *482:Y *128:10 40.9476 
2 *128:10 *554:A 41.4008 
*END

*D_NET *129 0.00123203
*CONN
*I *555:A I *D sg13g2_buf_1
*I *483:Y O *D sg13g2_nand2_1
*CAP
1 *555:A 0.000616016
2 *483:Y 0.000616016
3 *555:A *462:B1 0
4 *555:A *517:RESET_B 0
5 *555:A *162:37 0
6 *555:A *170:12 0
7 *115:284 *555:A 0
*RES
1 *483:Y *555:A 45.6444 
*END

*D_NET *130 0.000583016
*CONN
*I *556:A I *D sg13g2_buf_1
*I *484:Y O *D sg13g2_nand2_1
*CAP
1 *556:A 0
2 *484:Y 0.000201505
3 *130:8 0.000201505
4 *130:8 *142:33 0
5 *130:8 *163:21 0
6 *60:22 *130:8 0.000180007
*RES
1 *484:Y *130:8 41.8334 
2 *130:8 *556:A 40 
*END

*D_NET *131 0.00132249
*CONN
*I *557:A I *D sg13g2_buf_1
*I *485:Y O *D sg13g2_nand2_1
*CAP
1 *557:A 0.000429471
2 *485:Y 0.000429471
3 *557:A *537:A 4.77425e-05
4 *557:A *133:30 0.000272181
5 *557:A *174:29 0
6 dac_code[2] *557:A 0
7 dac_code[3] *557:A 0
8 *21:10 *557:A 0.00014363
*RES
1 *485:Y *557:A 44.2642 
*END

*D_NET *132 0.00421887
*CONN
*I *465:B I *D sg13g2_and2_1
*I *467:A2 I *D sg13g2_o21ai_1
*I *464:B I *D sg13g2_nor2_1
*I *546:X O *D sg13g2_buf_1
*CAP
1 *465:B 0.000185229
2 *467:A2 0
3 *464:B 0.000116471
4 *546:X 0.000144526
5 *132:25 0.000382181
6 *132:12 0.00158687
7 *132:8 0.00141797
8 *465:B *467:B1 8.02105e-05
9 *132:25 *467:B1 1.54008e-05
10 *465:A *465:B 8.01176e-05
11 *474:A2 *465:B 0
12 *545:A *132:12 0
13 *45:9 *464:B 0
14 *45:9 *132:12 0
15 *112:10 *132:25 0
16 *115:60 *132:25 0
17 *121:10 *132:12 0
18 *125:8 *464:B 0
19 *125:8 *465:B 0.000209895
20 *125:8 *132:25 0
*RES
1 *546:X *132:8 41.8334 
2 *132:8 *132:12 34.3788 
3 *132:12 *464:B 21.3184 
4 *132:12 *132:25 1.9632 
5 *132:25 *467:A2 20 
6 *132:25 *465:B 22.2866 
*END

*D_NET *133 0.00429068
*CONN
*I *558:A I *D sg13g2_buf_1
*I *486:Y O *D sg13g2_nand2_1
*CAP
1 *558:A 0
2 *486:Y 9.97809e-05
3 *133:30 0.00126264
4 *133:10 0.00136243
5 *133:10 *486:A 7.92265e-05
6 *133:10 *141:41 0.000180603
7 *133:30 *456:B 4.77425e-05
8 *133:30 *486:A 0
9 *133:30 *139:10 0
10 *133:30 *144:32 0
11 *133:30 *161:54 0
12 *133:30 *161:73 4.77083e-05
13 dac_code[2] *133:30 0.000261884
14 *482:B *133:30 3.05216e-05
15 *557:A *133:30 0.000272181
16 *17:12 *133:30 0
17 *28:10 *133:10 0.000180773
18 *29:14 *133:30 0
19 *56:6 *133:30 0.000465186
20 *128:10 *133:30 0
*RES
1 *486:Y *133:10 41.3802 
2 *133:10 *133:30 32.7308 
3 *133:30 *558:A 20 
*END

*D_NET *134 0.00459358
*CONN
*I *559:A I *D sg13g2_buf_1
*I *487:Y O *D sg13g2_nand2_1
*CAP
1 *559:A 0.000147531
2 *487:Y 0.000788704
3 *134:26 0.000671924
4 *134:18 0.0013131
5 *559:A *164:56 0.000175461
6 *134:18 *434:B 0
7 *134:18 *446:B 0
8 *134:18 *536:A 0
9 *134:18 *144:18 0.000111995
10 *134:18 *161:54 0
11 *134:18 *164:80 0
12 *134:18 *173:31 0.000773216
13 *134:26 *164:56 0
14 *134:26 *164:67 0
15 *134:26 *174:29 0
16 dac_code[5] *134:26 0.000339131
17 dac_code[6] *134:26 0
18 dac_code[7] *559:A 0
19 *447:A1 *559:A 0
20 *488:B *134:18 0
21 *62:46 *134:18 0.000272523
22 *115:284 *134:18 0
*RES
1 *487:Y *134:18 49.3936 
2 *134:18 *134:26 44.841 
3 *134:26 *559:A 41.4008 
*END

*D_NET *135 0.00146762
*CONN
*I *560:A I *D sg13g2_buf_1
*I *488:Y O *D sg13g2_nand2_1
*CAP
1 *560:A 0.000397103
2 *488:Y 0.000166446
3 *135:8 0.000563549
4 *560:A *164:48 0
5 dac_code[6] *135:8 0
6 *447:A1 *560:A 0.000340521
7 *488:B *135:8 0
8 *489:B *560:A 0
9 *105:8 *135:8 0
*RES
1 *488:Y *135:8 41.339 
2 *135:8 *560:A 44.465 
*END

*D_NET *136 0.00118109
*CONN
*I *561:A I *D sg13g2_buf_1
*I *489:Y O *D sg13g2_nand2_1
*CAP
1 *561:A 0
2 *489:Y 0.000266802
3 *136:10 0.000266802
4 *136:10 *164:8 0
5 *136:10 *164:48 0.000143587
6 bit_active[6] *136:10 0.000392121
7 *124:33 *136:10 0.000111782
*RES
1 *489:Y *136:10 43.2342 
2 *136:10 *561:A 40 
*END

*D_NET *137 0.00485894
*CONN
*I *562:A I *D sg13g2_buf_1
*I *462:B1 I *D sg13g2_a21oi_1
*I *461:Y O *D sg13g2_nand2b_1
*CAP
1 *562:A 0.000560878
2 *462:B1 0.000175406
3 *461:Y 0.000239074
4 *137:20 0.00109121
5 *137:8 0.00171576
6 *562:A *564:A 0
7 *562:A *138:31 0.000207804
8 *562:A *162:18 0
9 *562:A *170:10 0
10 *137:8 *138:31 0
11 *137:8 *141:12 0
12 *137:8 *162:18 0
13 *137:20 *141:12 0
14 *137:20 *143:37 0
15 *137:20 *170:10 0
16 *137:20 *170:12 0
17 *137:20 *170:25 0
18 *137:20 *173:8 0.000127793
19 *516:CLK *137:20 0
20 *555:A *462:B1 0
21 *55:14 *137:8 0.00017686
22 *60:12 *137:20 0.00024222
23 *64:16 *462:B1 0.000274057
24 *64:16 *137:20 4.78743e-05
25 *106:10 *137:20 0
*RES
1 *461:Y *137:8 42.0806 
2 *137:8 *137:20 49.2494 
3 *137:20 *462:B1 41.8334 
4 *137:8 *562:A 46.0873 
*END

*D_NET *138 0.0059694
*CONN
*I *563:A I *D sg13g2_buf_1
*I *457:B1 I *D sg13g2_a21oi_1
*I *456:Y O *D sg13g2_nand2b_1
*CAP
1 *563:A 0
2 *457:B1 0
3 *456:Y 0
4 *138:31 0.000617873
5 *138:14 0.00193829
6 *138:8 0.00255616
7 *138:6 0
8 *138:14 *460:B_N 0
9 *138:14 *161:107 4.99867e-05
10 *138:31 *141:41 0
11 *138:31 *161:107 0.000187789
12 *138:31 *162:12 0
13 *138:31 *162:18 0
14 *447:A1 *138:14 0
15 *458:B *138:14 2.19989e-05
16 *562:A *138:31 0.000207804
17 *28:10 *138:31 0.000336685
18 *85:8 *138:14 5.28117e-05
19 *137:8 *138:31 0
*RES
1 *456:Y *138:6 40 
2 *138:6 *138:8 20 
3 *138:8 *138:14 41.5888 
4 *138:14 *457:B1 40 
5 *138:8 *138:31 46.5199 
6 *138:31 *563:A 20 
*END

*D_NET *139 0.00721554
*CONN
*I *564:A I *D sg13g2_buf_1
*I *452:B1 I *D sg13g2_a21oi_1
*I *451:Y O *D sg13g2_nand2b_1
*CAP
1 *564:A 3.21785e-05
2 *452:B1 0
3 *451:Y 5.84446e-05
4 *139:33 0.000534121
5 *139:20 0
6 *139:16 0.00201597
7 *139:10 0.00257636
8 *139:10 *144:32 4.76243e-05
9 *139:16 *173:14 0.000699228
10 *139:33 *140:33 0.000556811
11 cmp_valid *139:33 0.00012767
12 dac_code_n[0] *139:33 0
13 *562:A *564:A 0
14 *55:14 *139:10 0
15 *56:12 *139:10 5.29404e-05
16 *56:12 *139:16 0.000282087
17 *59:8 *139:16 0.000232104
18 *133:30 *139:10 0
*RES
1 *451:Y *139:10 40.6695 
2 *139:10 *139:16 41.1253 
3 *139:16 *139:20 40 
4 *139:20 *452:B1 20 
5 *139:10 *139:33 46.1079 
6 *139:33 *564:A 40.3193 
*END

*D_NET *140 0.00488846
*CONN
*I *565:A I *D sg13g2_buf_1
*I *447:B1 I *D sg13g2_a21oi_1
*I *446:Y O *D sg13g2_nand2b_1
*CAP
1 *565:A 0
2 *447:B1 0
3 *446:Y 5.40099e-05
4 *140:33 0.000974951
5 *140:22 0.000635671
6 *140:10 0.00161062
7 *140:8 5.40099e-05
8 *140:8 *490:B 0
9 cmp_valid *140:33 0
10 dac_code[1] *140:8 0.000126383
11 dac_code_n[1] *140:33 0
12 *431:A_N *140:22 4.77425e-05
13 *447:A1 *140:22 0
14 *489:B *140:22 0
15 *32:14 *140:22 0.00015154
16 *32:14 *140:33 0.00044161
17 *83:8 *140:22 0.000235112
18 *139:33 *140:33 0.000556811
*RES
1 *446:Y *140:8 40.5974 
2 *140:8 *140:10 20 
3 *140:10 *140:22 44.315 
4 *140:22 *447:B1 20 
5 *140:10 *140:33 27.5069 
6 *140:33 *565:A 40 
*END

*D_NET *141 0.00656862
*CONN
*I *566:A I *D sg13g2_buf_1
*I *442:B1 I *D sg13g2_a21oi_1
*I *441:Y O *D sg13g2_nand2b_1
*CAP
1 *566:A 0
2 *442:B1 0.000783202
3 *441:Y 3.41833e-05
4 *141:41 0.000850824
5 *141:12 0.00123792
6 *141:6 0.00133973
7 *442:B1 *440:B_N 8.01116e-05
8 *442:B1 *516:RESET_B 0
9 *141:6 *162:18 4.72443e-05
10 *141:41 *486:A 0
11 *141:41 *142:33 0
12 *141:41 *162:18 0.00016097
13 dac_code_n[0] *141:41 0
14 dac_code_n[1] *141:41 0.000547791
15 *486:B *141:41 0
16 *516:CLK *141:12 0
17 *28:10 *141:41 0
18 *29:14 *141:41 0
19 *31:10 *141:41 4.75166e-05
20 *55:14 *141:41 4.7707e-05
21 *59:8 *141:12 0.000500862
22 *82:10 *442:B1 0.000177356
23 *106:18 *442:B1 8.03417e-05
24 *115:331 *442:B1 0.000339524
25 *115:340 *442:B1 0.000112727
26 *133:10 *141:41 0.000180603
27 *137:8 *141:12 0
28 *137:20 *141:12 0
29 *138:31 *141:41 0
*RES
1 *441:Y *141:6 20.3193 
2 *141:6 *141:12 45.047 
3 *141:12 *442:B1 27.6117 
4 *141:6 *141:41 48.7756 
5 *141:41 *566:A 20 
*END

*D_NET *142 0.00733266
*CONN
*I *567:A I *D sg13g2_buf_1
*I *437:B1 I *D sg13g2_a21oi_1
*I *436:Y O *D sg13g2_nand2b_1
*CAP
1 *567:A 0
2 *437:B1 0.000781409
3 *436:Y 0.000108417
4 *142:33 0.00193225
5 *142:8 0.00282207
6 *437:B1 *160:78 0
7 *437:B1 *163:10 0
8 *437:B1 *170:25 0
9 *142:8 *436:B 0
10 *142:33 *537:A 0
11 *142:33 *144:32 0.000124547
12 *142:33 *163:21 0
13 *142:33 *174:29 0
14 dac_code[0] *142:33 0
15 dac_code_n[6] *142:33 0.000923205
16 dac_code_n[7] *142:33 0
17 *437:A2 *437:B1 0
18 *462:A1 *437:B1 0
19 *462:A2 *142:8 0
20 *30:10 *142:33 0
21 *50:8 *437:B1 0
22 *60:12 *437:B1 0.000444285
23 *60:12 *142:33 0.000181024
24 *60:16 *142:8 0
25 *60:22 *142:33 0
26 *81:10 *437:B1 0
27 *100:78 *437:B1 1.54556e-05
28 *100:82 *437:B1 0
29 *106:18 *437:B1 0
30 *115:284 *142:8 0
31 *122:27 *437:B1 0
32 *130:8 *142:33 0
33 *141:41 *142:33 0
*RES
1 *436:Y *142:8 40.9682 
2 *142:8 *437:B1 47.416 
3 *142:8 *142:33 39.6421 
4 *142:33 *567:A 20 
*END

*D_NET *143 0.00910034
*CONN
*I *542:A I *D sg13g2_buf_1
*I *544:A I *D sg13g2_buf_1
*I *543:A I *D sg13g2_buf_1
*I *547:X O *D sg13g2_buf_1
*CAP
1 *542:A 0.000149343
2 *544:A 0
3 *543:A 0
4 *547:X 0.00010123
5 *143:37 0.00121747
6 *143:26 6.80409e-05
7 *143:20 0.00327584
8 *143:16 0.00291409
9 *143:8 0.000875658
10 *542:A *578:A 0
11 *542:A *168:36 0
12 *143:16 *154:10 0
13 *143:26 *163:10 0
14 *94:10 *542:A 0
15 *94:10 *143:16 0
16 *95:10 *542:A 0.00031706
17 *95:10 *143:16 0.0001816
18 *125:12 *143:37 0
19 *137:20 *143:37 0
*RES
1 *547:X *143:8 41.0918 
2 *143:8 *143:16 49.0434 
3 *143:16 *143:20 41.3004 
4 *143:20 *143:26 40.5974 
5 *143:26 *543:A 20 
6 *143:20 *143:37 33.1222 
7 *143:37 *544:A 40 
8 *143:16 *542:A 41.8334 
*END

*D_NET *144 0.0105744
*CONN
*I *432:B1 I *D sg13g2_a21oi_1
*I *568:A I *D sg13g2_buf_1
*I *431:Y O *D sg13g2_nand2b_1
*CAP
1 *432:B1 0
2 *568:A 0
3 *431:Y 3.53413e-05
4 *144:55 0.00075376
5 *144:42 0.000300861
6 *144:32 0.0011034
7 *144:18 0.00137825
8 *144:6 0.00136482
9 *144:18 *173:14 0.000525182
10 *144:32 *162:37 0.000176229
11 *144:42 *486:A 0
12 *144:55 *434:B 0
13 *144:55 *166:96 0
14 *144:55 *173:31 0
15 dac_code_n[0] *144:42 0
16 dac_code_n[1] *144:42 0.000286746
17 *432:A2 *144:55 0
18 *441:A_N *144:32 8.00842e-05
19 *451:A_N *144:32 0
20 *484:B *144:32 0.000433458
21 *486:B *144:32 0.000240417
22 *486:B *144:42 0
23 *489:B *144:18 4.6793e-05
24 *518:CLK *144:32 0.000272636
25 *28:10 *144:42 0.000110936
26 *32:14 *144:18 0.000456668
27 *49:8 *144:55 0.000707567
28 *62:25 *144:55 0.00165967
29 *62:46 *144:18 0.000351395
30 *80:8 *144:55 0
31 *115:284 *144:18 6.03998e-06
32 *115:284 *144:32 0
33 *127:23 *144:55 0
34 *133:30 *144:32 0
35 *134:18 *144:18 0.000111995
36 *139:10 *144:32 4.76243e-05
37 *142:33 *144:32 0.000124547
*RES
1 *431:Y *144:6 20.3193 
2 *144:6 *144:18 46.5302 
3 *144:18 *144:32 46.7196 
4 *144:32 *144:42 43.2754 
5 *144:42 *568:A 20 
6 *144:6 *144:55 49.4451 
7 *144:55 *432:B1 20 
*END

*D_NET *145 0.000333622
*CONN
*I *569:A I *D sg13g2_buf_1
*I *490:Y O *D sg13g2_nand2b_1
*CAP
1 *569:A 0.000166811
2 *490:Y 0.000166811
3 *462:A2 *569:A 0
*RES
1 *490:Y *569:A 41.8437 
*END

*D_NET *146 0.00138091
*CONN
*I *570:A I *D sg13g2_buf_1
*I *515:Q O *D sg13g2_dfrbpq_1
*CAP
1 *570:A 0
2 *515:Q 0.000308274
3 *146:10 0.000308274
4 *146:10 *582:A 0
5 bit_active[1] *146:10 0.000209505
6 result[5] *146:10 0
7 result[7] *146:10 0.000554859
*RES
1 *515:Q *146:10 43.9758 
2 *146:10 *570:A 40 
*END

*D_NET *147 0.000940634
*CONN
*I *571:A I *D sg13g2_buf_1
*I *532:X O *D sg13g2_buf_1
*CAP
1 *571:A 0
2 *532:X 0.000470317
3 *147:10 0.000470317
4 hold_req *147:10 0
5 *125:8 *147:10 0
*RES
1 *532:X *147:10 45.15 
2 *147:10 *571:A 40 
*END

*D_NET *148 0.00329391
*CONN
*I *572:A I *D sg13g2_buf_1
*I *491:B2 I *D sg13g2_a22oi_1
*I *506:Q O *D sg13g2_dfrbpq_1
*CAP
1 *572:A 0.000492977
2 *491:B2 0.000160353
3 *506:Q 0.00014228
4 *148:10 0.000653331
5 *148:8 0.00014228
6 *491:B2 *152:14 7.9418e-05
7 *491:B2 *158:71 0
8 *572:A *573:A 0
9 *572:A *150:20 0.000339448
10 *572:A *152:14 2.4729e-05
11 *148:8 *153:29 0.000551886
12 *148:8 *155:26 0.00065944
13 *506:CLK *572:A 4.77702e-05
14 *507:D *491:B2 0
15 *507:D *572:A 0
16 *43:9 *572:A 0
*RES
1 *506:Q *148:8 43.0694 
2 *148:8 *148:10 20 
3 *148:10 *491:B2 21.4008 
4 *148:10 *572:A 25.1294 
*END

*D_NET *149 0.00278902
*CONN
*I *493:B2 I *D sg13g2_a22oi_1
*I *573:A I *D sg13g2_buf_1
*I *507:Q O *D sg13g2_dfrbpq_1
*CAP
1 *493:B2 0.000379262
2 *573:A 0.000556696
3 *507:Q 0.000303412
4 *149:8 0.00123937
5 *493:B2 *509:RESET_B 0
6 *493:B2 *167:10 0
7 result[0] *573:A 0
8 result[1] *149:8 0
9 result[2] *573:A 0
10 result[2] *149:8 0
11 *507:D *573:A 0
12 *507:CLK *493:B2 0.000262541
13 *572:A *573:A 0
14 *85:31 *493:B2 4.77425e-05
15 *115:135 *493:B2 0
*RES
1 *507:Q *149:8 42.8222 
2 *149:8 *573:A 45.0882 
3 *149:8 *493:B2 44.017 
*END

*D_NET *150 0.00512933
*CONN
*I *495:B2 I *D sg13g2_a22oi_1
*I *574:A I *D sg13g2_buf_1
*I *508:Q O *D sg13g2_dfrbpq_1
*CAP
1 *495:B2 0
2 *574:A 0
3 *508:Q 0.00032374
4 *150:20 0.00038853
5 *150:12 0.000506947
6 *150:8 0.000442157
7 *150:8 *493:A1 0
8 *150:20 *155:26 0.000818288
9 result[4] *150:8 0
10 result[5] *150:8 0.000977656
11 *495:A2 *150:12 0.000208571
12 *507:D *150:20 0.000339316
13 *572:A *150:20 0.000339448
14 *95:10 *150:12 0.000175986
15 *96:10 *150:20 0.00060869
16 *115:153 *150:20 0
*RES
1 *508:Q *150:8 44.5526 
2 *150:8 *150:12 21.4008 
3 *150:12 *150:20 46.077 
4 *150:20 *574:A 20 
5 *150:12 *495:B2 20 
*END

*D_NET *151 0.00139127
*CONN
*I *497:B2 I *D sg13g2_a22oi_1
*I *575:A I *D sg13g2_buf_1
*I *509:Q O *D sg13g2_dfrbpq_1
*CAP
1 *497:B2 0.000294191
2 *575:A 0.000126001
3 *509:Q 0.000138713
4 *151:8 0.000558905
5 *497:B2 *507:RESET_B 0
6 *497:B2 *576:A 0
7 *151:8 *507:RESET_B 0
8 *507:D *497:B2 0
9 *507:D *575:A 0
10 *54:22 *497:B2 0
11 *95:10 *497:B2 0
12 *96:10 *497:B2 0.000273458
*RES
1 *509:Q *151:8 21.3802 
2 *151:8 *575:A 21.5347 
3 *151:8 *497:B2 22.9149 
*END

*D_NET *152 0.00328694
*CONN
*I *576:A I *D sg13g2_buf_1
*I *499:B2 I *D sg13g2_a22oi_1
*I *510:Q O *D sg13g2_dfrbpq_1
*CAP
1 *576:A 0.000582459
2 *499:B2 0.000295969
3 *510:Q 0.000295654
4 *152:14 0.00117408
5 *499:B2 *153:29 0
6 *499:B2 *159:57 0.000129163
7 *576:A *153:29 0
8 *576:A *159:53 0
9 *576:A *159:55 0
10 *152:14 *158:71 0.000241313
11 *491:B2 *152:14 7.9418e-05
12 *497:B2 *576:A 0
13 *497:A2 *576:A 0.000143714
14 *506:CLK *152:14 4.77702e-05
15 *508:D *576:A 0.000272669
16 *572:A *152:14 2.4729e-05
17 *93:8 *499:B2 0
*RES
1 *510:Q *152:14 43.2548 
2 *152:14 *499:B2 42.9355 
3 *152:14 *576:A 45.3931 
*END

*D_NET *153 0.00383139
*CONN
*I *577:A I *D sg13g2_buf_1
*I *501:B2 I *D sg13g2_a22oi_1
*I *511:Q O *D sg13g2_dfrbpq_1
*CAP
1 *577:A 0
2 *501:B2 0.000270097
3 *511:Q 3.37195e-05
4 *153:29 0.00107093
5 *153:8 0.00137475
6 *501:B2 *512:RESET_B 0
7 *501:B2 *158:27 0
8 *153:8 *155:26 4.73078e-05
9 *153:29 *155:26 0
10 *153:29 *159:53 0
11 *153:29 *167:87 0.000290042
12 *153:29 *167:115 4.76874e-05
13 result[5] *153:29 0
14 *499:B2 *153:29 0
15 *500:A *501:B2 0
16 *500:A *153:8 0
17 *502:A *501:B2 0.000144965
18 *508:D *153:29 0
19 *576:A *153:29 0
20 *97:8 *501:B2 0
21 *115:157 *501:B2 0
22 *148:8 *153:29 0.000551886
*RES
1 *511:Q *153:8 40.3193 
2 *153:8 *501:B2 42.7707 
3 *153:8 *153:29 30.5781 
4 *153:29 *577:A 20 
*END

*D_NET *154 0.0035776
*CONN
*I *505:S I *D sg13g2_mux2_1
*I *578:A I *D sg13g2_buf_1
*I *515:D I *D sg13g2_dfrbpq_1
*I *481:Y O *D sg13g2_inv_1
*CAP
1 *505:S 0
2 *578:A 0.000332742
3 *515:D 2.98195e-05
4 *481:Y 2.68912e-05
5 *154:38 0.000629984
6 *154:10 0.000787362
7 *154:6 0.00108168
8 *515:D *168:55 0
9 *578:A *580:A 0
10 *578:A *168:36 0.000126381
11 *578:A *168:55 0.000272747
12 *154:6 *481:A 1.54556e-05
13 *154:10 *505:A0 0
14 *154:10 *158:65 0
15 *154:38 *505:A0 0
16 *154:38 *514:D 0
17 *154:38 *158:8 0
18 *495:A2 *578:A 0
19 *497:A2 *515:D 0
20 *542:A *578:A 0
21 *82:32 *154:6 4.79124e-05
22 *82:32 *154:38 0.000226633
23 *86:35 *154:6 0
24 *86:35 *154:38 0
25 *115:235 *154:38 0
26 *143:16 *154:10 0
*RES
1 *481:Y *154:6 20.3193 
2 *154:6 *154:10 24.3054 
3 *154:10 *515:D 40.3193 
4 *154:10 *578:A 43.4196 
5 *154:6 *154:38 45.9225 
6 *154:38 *505:S 20 
*END

*D_NET *155 0.00575287
*CONN
*I *503:B2 I *D sg13g2_a22oi_1
*I *579:A I *D sg13g2_buf_1
*I *512:Q O *D sg13g2_dfrbpq_1
*CAP
1 *503:B2 0
2 *579:A 6.06104e-05
3 *512:Q 0.0002161
4 *155:26 0.00132044
5 *155:14 0.00133387
6 *155:10 0.000290139
7 *155:10 *159:57 0
8 *155:10 *159:68 0
9 *155:26 *493:A1 0.000211438
10 *155:26 *495:A1 0.000127744
11 *155:26 *167:87 0.000112525
12 result[4] *579:A 0
13 result[4] *155:26 0.000127744
14 *500:A *155:26 0
15 *501:A2 *155:14 0
16 *503:A2 *155:14 0.000112136
17 *506:D *155:26 4.78524e-05
18 *54:22 *155:10 0.000187162
19 *82:32 *155:10 0
20 *99:10 *155:14 1.61708e-05
21 *99:10 *155:26 6.39133e-05
22 *115:155 *155:26 0
23 *148:8 *155:26 0.00065944
24 *150:20 *155:26 0.000818288
25 *153:8 *155:26 4.73078e-05
26 *153:29 *155:26 0
*RES
1 *512:Q *155:10 42.0909 
2 *155:10 *155:14 20.8601 
3 *155:14 *155:26 34.2192 
4 *155:26 *579:A 40.5356 
5 *155:14 *503:B2 20 
*END

*D_NET *156 0.00326453
*CONN
*I *580:A I *D sg13g2_buf_1
*I *505:A0 I *D sg13g2_mux2_1
*I *513:Q O *D sg13g2_dfrbpq_1
*CAP
1 *580:A 0.000715679
2 *505:A0 0.000908888
3 *513:Q 0
4 *156:6 0.00162457
5 *505:A0 *480:B 0
6 *505:A0 *158:8 0
7 *505:A0 *158:50 0
8 *580:A *168:36 0
9 *495:A2 *580:A 0
10 *501:A2 *505:A0 0
11 *505:A1 *505:A0 1.54008e-05
12 *578:A *580:A 0
13 *115:108 *505:A0 0
14 *115:108 *580:A 0
15 *115:110 *580:A 0
16 *154:10 *505:A0 0
17 *154:38 *505:A0 0
*RES
1 *513:Q *156:6 40 
2 *156:6 *505:A0 48.3018 
3 *156:6 *580:A 46.1697 
*END

*D_NET *157 0.000299703
*CONN
*I *581:A I *D sg13g2_buf_1
*I *477:Y O *D sg13g2_nor2_1
*CAP
1 *581:A 0.000149852
2 *477:Y 0.000149852
3 *581:A *532:A 0
*RES
1 *477:Y *581:A 41.4008 
*END

*D_NET *158 0.00928673
*CONN
*I *491:B1 I *D sg13g2_a22oi_1
*I *493:B1 I *D sg13g2_a22oi_1
*I *495:B1 I *D sg13g2_a22oi_1
*I *481:A I *D sg13g2_inv_1
*I *501:B1 I *D sg13g2_a22oi_1
*I *499:B1 I *D sg13g2_a22oi_1
*I *503:B1 I *D sg13g2_a22oi_1
*I *514:D I *D sg13g2_dfrbpq_1
*I *533:X O *D sg13g2_buf_1
*CAP
1 *491:B1 0
2 *493:B1 0.000185639
3 *495:B1 7.73156e-05
4 *481:A 4.99609e-05
5 *501:B1 0
6 *499:B1 0.000104496
7 *503:B1 0
8 *514:D 0.000480519
9 *533:X 0
10 *158:71 0.000695735
11 *158:65 0.000904739
12 *158:50 0.000603528
13 *158:27 0.000216
14 *158:23 0.000483055
15 *158:8 0.00112811
16 *158:6 0.000357651
17 *493:B1 *493:A1 4.77425e-05
18 *493:B1 *167:27 0.000288016
19 *493:B1 *167:29 5.28594e-05
20 *495:B1 *495:A1 4.77425e-05
21 *499:B1 *159:57 7.56308e-05
22 *158:23 *501:A1 4.77425e-05
23 *158:23 *512:RESET_B 0
24 *158:71 *167:29 0.000927032
25 *158:71 *167:87 0
26 *491:B2 *158:71 0
27 *501:B2 *158:27 0
28 *501:A2 *514:D 0
29 *501:A2 *158:23 0
30 *505:A0 *158:8 0
31 *505:A0 *158:50 0
32 *506:D *158:71 0
33 *511:CLK *158:27 0
34 *54:10 *158:8 0.000287757
35 *77:10 *158:23 0
36 *82:32 *481:A 0
37 *82:32 *158:65 0
38 *86:35 *481:A 0
39 *86:35 *158:65 0
40 *97:8 *499:B1 0.000318694
41 *97:8 *158:27 7.51285e-05
42 *99:10 *499:B1 7.52149e-05
43 *99:10 *158:27 0.000338548
44 *115:153 *493:B1 0.000235075
45 *115:153 *158:71 0.000797868
46 *115:155 *158:71 0.00012816
47 *152:14 *158:71 0.000241313
48 *154:6 *481:A 1.54556e-05
49 *154:10 *158:65 0
50 *154:38 *514:D 0
51 *154:38 *158:8 0
*RES
1 *533:X *158:6 40 
2 *158:6 *158:8 3.5638 
3 *158:8 *514:D 45.2736 
4 *158:8 *158:23 23.7801 
5 *158:23 *158:27 21.5862 
6 *158:27 *503:B1 40 
7 *158:27 *499:B1 41.5862 
8 *158:23 *501:B1 20 
9 *158:6 *158:50 0.8446 
10 *158:50 *481:A 40.5356 
11 *158:50 *158:65 24.8771 
12 *158:65 *158:71 26.7826 
13 *158:71 *495:B1 40.7519 
14 *158:71 *493:B1 42.3381 
15 *158:65 *491:B1 20 
*END

*D_NET *159 0.00824681
*CONN
*I *497:A1 I *D sg13g2_a22oi_1
*I *491:A1 I *D sg13g2_a22oi_1
*I *503:A1 I *D sg13g2_a22oi_1
*I *501:A1 I *D sg13g2_a22oi_1
*I *499:A1 I *D sg13g2_a22oi_1
*I *493:A1 I *D sg13g2_a22oi_1
*I *495:A1 I *D sg13g2_a22oi_1
*I *450:A I *D sg13g2_nor2b_1
*I *534:X O *D sg13g2_buf_1
*CAP
1 *497:A1 0
2 *491:A1 0
3 *503:A1 6.9116e-05
4 *501:A1 0.000128377
5 *499:A1 0
6 *493:A1 0.000155884
7 *495:A1 0.00013015
8 *450:A 0.000219431
9 *534:X 0.000162996
10 *159:68 0.000396363
11 *159:57 0.000441736
12 *159:55 0.00047074
13 *159:53 0.000530101
14 *159:27 0.000429282
15 *159:23 0.00158105
16 *159:8 0.001518
17 *450:A *450:B_N 0
18 *450:A *160:12 0
19 *501:A1 *512:RESET_B 0
20 *159:8 *160:8 0
21 *159:53 *167:115 0.000126146
22 result[5] *495:A1 0
23 *453:A *450:A 0.000208377
24 *493:B1 *493:A1 4.77425e-05
25 *495:B1 *495:A1 4.77425e-05
26 *499:B1 *159:57 7.56308e-05
27 *499:B2 *159:57 0.000129163
28 *501:A2 *503:A1 4.77425e-05
29 *576:A *159:53 0
30 *576:A *159:55 0
31 *39:8 *159:53 0
32 *54:22 *159:53 0
33 *54:22 *159:55 0
34 *54:22 *159:57 0
35 *77:10 *501:A1 0
36 *84:27 *450:A 0
37 *93:8 *159:57 0
38 *94:10 *159:53 0
39 *97:8 *159:57 0
40 *99:10 *501:A1 0.000285421
41 *99:10 *159:68 0.000159511
42 *100:10 *450:A 0.000179006
43 *100:10 *159:8 0.000207749
44 *115:131 *493:A1 0.000112426
45 *150:8 *493:A1 0
46 *153:29 *159:53 0
47 *155:10 *159:57 0
48 *155:10 *159:68 0
49 *155:26 *493:A1 0.000211438
50 *155:26 *495:A1 0.000127744
51 *158:23 *501:A1 4.77425e-05
*RES
1 *534:X *159:8 41.2878 
2 *159:8 *450:A 42.2454 
3 *159:8 *159:23 33.081 
4 *159:23 *159:27 21.6171 
5 *159:27 *495:A1 41.3493 
6 *159:27 *493:A1 41.8437 
7 *159:23 *159:53 23.0694 
8 *159:53 *159:55 1.8334 
9 *159:55 *159:57 2.3278 
10 *159:57 *499:A1 40 
11 *159:57 *159:68 2.1527 
12 *159:68 *501:A1 41.6583 
13 *159:68 *503:A1 40.7776 
14 *159:55 *491:A1 40 
15 *159:53 *497:A1 40 
*END

*D_NET *160 0.0130866
*CONN
*I *534:A I *D sg13g2_buf_1
*I *445:A I *D sg13g2_nor2b_1
*I *435:A I *D sg13g2_nor2b_1
*I *440:A I *D sg13g2_nor2b_1
*I *430:A I *D sg13g2_nor2b_1
*I *455:A I *D sg13g2_nor2b_1
*I *460:A I *D sg13g2_nor2b_1
*I *480:B I *D sg13g2_nand2_1
*I *535:X O *D sg13g2_buf_1
*CAP
1 *534:A 8.24004e-05
2 *445:A 0.000554326
3 *435:A 2.83231e-05
4 *440:A 0
5 *430:A 4.70728e-05
6 *455:A 0.000191448
7 *460:A 0
8 *480:B 0.000785216
9 *535:X 0
10 *160:78 0.000574908
11 *160:68 0.00171754
12 *160:51 0.00134518
13 *160:31 0.00041342
14 *160:16 0.00136413
15 *160:12 0.00103546
16 *160:8 0.00112344
17 *160:4 0.000156798
18 *445:A *172:18 0
19 *455:A *460:B_N 0
20 *455:A *168:70 0
21 *480:B *166:111 0
22 *480:B *168:72 0
23 *534:A *172:18 0
24 *160:31 *168:70 0
25 *160:31 *168:72 0
26 *160:68 *530:RESET_B 0
27 *160:68 *166:96 0
28 *160:78 *439:B 0
29 *437:B1 *160:78 0
30 *450:A *160:12 0
31 *462:A2 *445:A 0
32 *501:A2 *435:A 0
33 *501:A2 *480:B 0
34 *501:A2 *160:68 0
35 *503:A2 *480:B 0
36 *505:A0 *480:B 0
37 *505:A1 *480:B 0
38 *513:D *480:B 0
39 *530:CLK *430:A 8.01776e-05
40 *50:8 *160:78 0
41 *51:8 *160:78 7.52158e-05
42 *52:8 *430:A 4.77425e-05
43 *52:16 *160:68 0
44 *52:29 *430:A 4.78359e-05
45 *52:29 *160:68 0
46 *54:10 *480:B 0
47 *63:12 *160:78 0
48 *65:8 *160:12 0.000339298
49 *81:10 *435:A 1.54008e-05
50 *84:27 *534:A 0
51 *86:12 *445:A 0
52 *100:10 *160:12 0
53 *100:82 *160:78 0.000394566
54 *102:29 *445:A 0.000143531
55 *109:20 *160:68 0.000235141
56 *115:235 *455:A 0
57 *115:235 *160:31 0
58 *115:262 *445:A 0.000272272
59 *115:273 *445:A 0.000224683
60 *122:27 *160:68 0
61 *123:8 *160:12 0.000181827
62 *123:23 *160:8 0.000178154
63 *123:23 *160:12 0.00143106
64 *159:8 *160:8 0
*RES
1 *535:X *160:4 20 
2 *160:4 *160:8 20.8446 
3 *160:8 *160:12 27.519 
4 *160:12 *160:16 24.429 
5 *160:16 *480:B 47.1688 
6 *160:16 *160:31 2.3278 
7 *160:31 *460:A 40 
8 *160:31 *455:A 41.8334 
9 *160:12 *160:51 22.266 
10 *160:51 *430:A 40.5356 
11 *160:51 *160:68 30.6605 
12 *160:68 *160:78 46.3963 
13 *160:78 *440:A 20 
14 *160:68 *435:A 20.3193 
15 *160:8 *445:A 45.7268 
16 *160:4 *534:A 20.9167 
*END

*D_NET *161 0.00611905
*CONN
*I *456:B I *D sg13g2_nand2b_1
*I *461:B I *D sg13g2_nand2b_1
*I *451:B I *D sg13g2_nand2b_1
*I *441:B I *D sg13g2_nand2b_1
*I *487:A I *D sg13g2_nand2_1
*I *490:B I *D sg13g2_nand2b_1
*I *446:B I *D sg13g2_nand2b_1
*I *485:A I *D sg13g2_nand2_1
*I *536:X O *D sg13g2_buf_1
*CAP
1 *456:B 5.75529e-05
2 *461:B 3.04198e-05
3 *451:B 0
4 *441:B 0.000144467
5 *487:A 3.95954e-05
6 *490:B 0.000196389
7 *446:B 5.19201e-05
8 *485:A 0
9 *536:X 0.000183227
10 *161:107 0.000219744
11 *161:99 0.000340822
12 *161:88 0.000124365
13 *161:73 0.000937826
14 *161:54 0.000985762
15 *161:23 0.000347464
16 *161:12 0.000298896
17 *161:4 0.000398051
18 *441:B *162:37 0
19 *456:B *162:12 0
20 *490:B *173:31 0
21 *161:12 *173:31 0
22 *161:23 *173:31 0
23 *161:54 *536:A 0
24 *161:107 *162:12 0.000156809
25 *161:107 *162:18 7.48842e-05
26 dac_code[1] *161:23 0
27 dac_code[2] *161:12 0
28 dac_code[2] *161:54 0
29 *441:A_N *441:B 1.54008e-05
30 *446:A_N *446:B 0
31 *446:A_N *487:A 0
32 *446:A_N *161:12 0.000143413
33 *446:A_N *161:23 4.76456e-05
34 *451:A_N *161:73 0
35 *451:A_N *161:88 4.77425e-05
36 *451:A_N *161:99 1.54008e-05
37 *484:B *441:B 0
38 *484:B *161:73 0
39 *485:B *161:12 0
40 *32:8 *490:B 2.14736e-05
41 *55:18 *461:B 4.77425e-05
42 *56:6 *456:B 1.54008e-05
43 *56:12 *441:B 0.000284377
44 *56:12 *456:B 5.28594e-05
45 *56:12 *161:73 0.000179006
46 *56:12 *161:99 0.000231973
47 *57:8 *161:73 0
48 *62:46 *490:B 4.76661e-05
49 *115:284 *490:B 4.75265e-05
50 *133:30 *456:B 4.77425e-05
51 *133:30 *161:54 0
52 *133:30 *161:73 4.77083e-05
53 *134:18 *446:B 0
54 *134:18 *161:54 0
55 *138:14 *161:107 4.99867e-05
56 *138:31 *161:107 0.000187789
57 *140:8 *490:B 0
*RES
1 *536:X *161:4 20 
2 *161:4 *161:12 42.9561 
3 *161:12 *485:A 20 
4 *161:4 *161:23 21.1639 
5 *161:23 *446:B 40.5356 
6 *161:23 *490:B 41.9776 
7 *536:X *161:54 21.7124 
8 *161:54 *487:A 20.4918 
9 *161:54 *161:73 27.2795 
10 *161:73 *441:B 41.6583 
11 *161:73 *161:88 20.3193 
12 *161:88 *451:B 20 
13 *161:88 *161:99 21.4111 
14 *161:99 *161:107 42.4926 
15 *161:107 *461:B 40.3193 
16 *161:99 *456:B 40.6695 
*END

*D_NET *162 0.00468687
*CONN
*I *482:A I *D sg13g2_nand2_1
*I *486:A I *D sg13g2_nand2_1
*I *484:A I *D sg13g2_nand2_1
*I *483:A I *D sg13g2_nand2_1
*I *537:X O *D sg13g2_buf_1
*CAP
1 *482:A 0
2 *486:A 0.00025357
3 *484:A 0
4 *483:A 3.15655e-05
5 *537:X 0.000101715
6 *162:37 0.000753398
7 *162:18 0.00125705
8 *162:12 0.000831279
9 *162:10 0.000207337
10 *162:18 *170:10 0
11 *162:37 *173:8 2.16263e-05
12 *162:37 *174:29 0
13 dac_code_n[7] *162:37 2.14736e-05
14 *441:B *162:37 0
15 *456:B *162:12 0
16 *484:B *162:37 0
17 *486:B *486:A 0
18 *518:CLK *162:37 0
19 *555:A *162:37 0
20 *562:A *162:18 0
21 *17:12 *162:10 7.98828e-05
22 *28:10 *162:12 0
23 *29:14 *162:10 7.98828e-05
24 *115:284 *162:37 0.000352727
25 *133:10 *486:A 7.92265e-05
26 *133:30 *486:A 0
27 *137:8 *162:18 0
28 *138:31 *162:12 0
29 *138:31 *162:18 0
30 *141:6 *162:18 4.72443e-05
31 *141:41 *486:A 0
32 *141:41 *162:18 0.00016097
33 *144:32 *162:37 0.000176229
34 *144:42 *486:A 0
35 *161:107 *162:12 0.000156809
36 *161:107 *162:18 7.48842e-05
*RES
1 *537:X *162:10 41.133 
2 *162:10 *162:12 1.0918 
3 *162:12 *162:18 24.1612 
4 *162:18 *483:A 20.3502 
5 *162:18 *162:37 47.21 
6 *162:37 *484:A 20 
7 *162:12 *486:A 42.369 
8 *162:10 *482:A 40 
*END

*D_NET *163 0.00760765
*CONN
*I *444:A I *D sg13g2_and2_1
*I *537:A I *D sg13g2_buf_1
*I *536:A I *D sg13g2_buf_1
*I *436:B I *D sg13g2_nand2b_1
*I *538:X O *D sg13g2_buf_1
*CAP
1 *444:A 0.000234043
2 *537:A 0.000732072
3 *536:A 0.000232613
4 *436:B 3.56154e-05
5 *538:X 0.000532621
6 *163:21 0.00146109
7 *163:10 0.000830595
8 *444:A *516:RESET_B 0.000306794
9 *537:A *174:29 0
10 *163:10 *169:10 0
11 dac_code[0] *163:21 0
12 dac_code[1] *536:A 0.000233672
13 dac_code[1] *163:21 0
14 dac_code[2] *536:A 0.000175867
15 dac_code_n[6] *537:A 0
16 *437:B1 *163:10 0
17 *446:A_N *536:A 4.75265e-05
18 *462:A1 *163:10 0.00033839
19 *538:A *444:A 0
20 *538:A *163:10 4.79124e-05
21 *557:A *537:A 4.77425e-05
22 *17:12 *537:A 0.00110852
23 *30:10 *537:A 0.000598053
24 *60:12 *444:A 0
25 *60:16 *436:B 1.53311e-05
26 *60:22 *163:21 0.000549109
27 *64:16 *163:10 0
28 *106:10 *444:A 8.00842e-05
29 *115:284 *436:B 0
30 *130:8 *163:21 0
31 *134:18 *536:A 0
32 *142:8 *436:B 0
33 *142:33 *537:A 0
34 *142:33 *163:21 0
35 *143:26 *163:10 0
36 *161:54 *536:A 0
*RES
1 *538:X *163:10 43.1415 
2 *163:10 *436:B 40.3193 
3 *163:10 *163:21 5.2942 
4 *163:21 *536:A 43.0282 
5 *163:21 *537:A 48.1438 
6 *538:X *444:A 42.3999 
*END

*D_NET *164 0.0107916
*CONN
*I *489:A I *D sg13g2_nand2_1
*I *431:B I *D sg13g2_nand2b_1
*I *434:B I *D sg13g2_and2_1
*I *488:A I *D sg13g2_nand2_1
*I *449:A I *D sg13g2_and2_1
*I *459:A I *D sg13g2_and2_1
*I *550:A I *D sg13g2_buf_1
*I *454:A I *D sg13g2_and2_1
*I *539:X O *D sg13g2_buf_1
*CAP
1 *489:A 0
2 *431:B 0
3 *434:B 0.000658192
4 *488:A 0
5 *449:A 0
6 *459:A 0
7 *550:A 0.00042045
8 *454:A 0
9 *539:X 0.000287155
10 *164:80 0.000865786
11 *164:67 0.000512394
12 *164:56 0.000640109
13 *164:48 0.000498006
14 *164:22 0.00123676
15 *164:12 0.000897339
16 *164:8 0.000205487
17 *434:B *169:24 0.00023464
18 *434:B *169:89 0.000444489
19 *550:A *582:A 0
20 *164:12 *174:29 0
21 *164:22 *582:A 0
22 *164:22 *165:8 0.000240572
23 *164:22 *172:37 0
24 *164:48 *172:18 0
25 *164:56 *172:12 0
26 bit_active[3] *164:22 0
27 bit_active[4] *164:22 0
28 bit_active[6] *164:56 0
29 bit_active[7] *164:56 0
30 busy *550:A 0
31 dac_code[5] *164:56 0.000143301
32 dac_code[5] *164:67 0.000144316
33 dac_code[7] *164:56 1.54008e-05
34 done *550:A 0
35 *447:A1 *164:8 0
36 *447:A1 *164:12 0.00012844
37 *447:A1 *164:22 1.54008e-05
38 *447:A1 *164:48 0
39 *447:A2 *164:67 0.000240746
40 *449:B *164:67 3.12899e-05
41 *454:B *164:22 0.000304544
42 *488:B *164:80 0.000405823
43 *559:A *164:56 0.000175461
44 *560:A *164:48 0
45 *49:8 *434:B 0
46 *61:8 *434:B 0.000549659
47 *63:12 *434:B 0.000272856
48 *82:32 *434:B 0
49 *83:8 *434:B 0
50 *103:12 *164:22 0
51 *104:22 *164:22 0
52 *115:110 *164:22 0
53 *115:123 *550:A 0
54 *123:23 *164:56 0
55 *127:23 *434:B 0.00107936
56 *134:18 *434:B 0
57 *134:18 *164:80 0
58 *134:26 *164:56 0
59 *134:26 *164:67 0
60 *136:10 *164:8 0
61 *136:10 *164:48 0.000143587
62 *144:55 *434:B 0
*RES
1 *539:X *164:8 41.0918 
2 *164:8 *164:12 20.9682 
3 *164:12 *164:22 8.047 
4 *164:22 *454:A 20 
5 *164:22 *550:A 23.9449 
6 *164:12 *459:A 20 
7 *539:X *164:48 21.6171 
8 *164:48 *164:56 43.2342 
9 *164:56 *449:A 20 
10 *164:56 *164:67 3.399 
11 *164:67 *488:A 20 
12 *164:67 *164:80 22.7192 
13 *164:80 *434:B 48.858 
14 *164:80 *431:B 40 
15 *164:48 *489:A 20 
*END

*D_NET *165 0.00612332
*CONN
*I *582:A I *D sg13g2_buf_1
*I *460:B_N I *D sg13g2_nor2b_1
*I *459:X O *D sg13g2_and2_1
*CAP
1 *582:A 0.000818857
2 *460:B_N 0.000807152
3 *459:X 0.000162494
4 *165:8 0.0017885
5 *460:B_N *168:70 0.000552982
6 *582:A *585:A 0.000529254
7 *582:A *172:37 0
8 bit_active[1] *582:A 0
9 bit_active[2] *460:B_N 0
10 bit_active[3] *582:A 0.00057188
11 bit_active[4] *582:A 0
12 busy *582:A 0.000336903
13 *455:A *460:B_N 0
14 *458:B *460:B_N 0
15 *550:A *582:A 0
16 *47:8 *460:B_N 0.000234634
17 *82:32 *460:B_N 0
18 *103:12 *165:8 0
19 *104:22 *460:B_N 0
20 *115:100 *460:B_N 8.00842e-05
21 *138:14 *460:B_N 0
22 *146:10 *582:A 0
23 *164:22 *582:A 0
24 *164:22 *165:8 0.000240572
*RES
1 *459:X *165:8 41.6171 
2 *165:8 *460:B_N 48.6932 
3 *165:8 *582:A 49.1155 
*END

*D_NET *166 0.016041
*CONN
*I *480:A I *D sg13g2_nand2_1
*I *439:B I *D sg13g2_and2_1
*I *424:A I *D sg13g2_inv_1
*I *467:B1 I *D sg13g2_o21ai_1
*I *532:A I *D sg13g2_buf_1
*I *477:A I *D sg13g2_nor2_1
*I *429:A I *D sg13g2_and2_1
*I *471:C I *D sg13g2_nand3b_1
*I *540:X O *D sg13g2_buf_1
*CAP
1 *480:A 0
2 *439:B 0.000551888
3 *424:A 6.02693e-05
4 *467:B1 0.000115921
5 *532:A 0.00085635
6 *477:A 0
7 *429:A 0
8 *471:C 0
9 *540:X 3.02124e-05
10 *166:115 0
11 *166:111 0.000569121
12 *166:96 0.00145836
13 *166:54 0.00233528
14 *166:44 0.00225008
15 *166:38 0.00134776
16 *166:32 0.00171043
17 *166:25 0.000317665
18 *166:18 0.000472265
19 *166:10 0.000812935
20 *166:6 0.000794037
21 *424:A *478:B 9.65862e-05
22 *166:18 *471:B 0.000112426
23 *166:18 *168:72 0
24 *166:25 *524:RESET_B 0
25 *166:44 *478:B 0.000240202
26 *166:54 *594:A 0
27 *166:54 *602:A 0
28 cmp_fire *166:54 0
29 *429:B *166:32 0.000242137
30 *429:B *166:96 1.54008e-05
31 *432:A1 *166:96 0
32 *437:A2 *439:B 0
33 *465:A *467:B1 4.77154e-05
34 *465:B *467:B1 8.02105e-05
35 *468:A *166:44 0
36 *468:B *467:B1 0
37 *471:A_N *166:18 4.77425e-05
38 *473:C *166:54 2.21754e-05
39 *474:A2 *467:B1 0
40 *480:B *166:111 0
41 *501:A2 *166:18 0
42 *501:A2 *166:25 0
43 *501:A2 *166:32 0
44 *501:A2 *166:96 0
45 *503:A2 *166:25 0
46 *503:A2 *166:32 0
47 *503:A2 *166:111 0.000177399
48 *505:A1 *166:10 0
49 *505:A1 *166:111 0
50 *513:D *166:111 1.54556e-05
51 *581:A *532:A 0
52 *587:A *166:18 0
53 *45:9 *166:54 0
54 *52:8 *166:96 0
55 *52:29 *166:96 0.000112521
56 *53:8 *424:A 1.53311e-05
57 *63:12 *439:B 0
58 *79:12 *166:18 0.00060182
59 *80:8 *166:96 0
60 *87:6 *166:54 0
61 *87:23 *166:54 0
62 *89:8 *166:44 4.76661e-05
63 *100:10 *166:18 0
64 *100:10 *166:38 0
65 *100:74 *166:96 0
66 *100:78 *439:B 0
67 *100:78 *166:96 0
68 *115:44 *166:38 0
69 *115:52 *424:A 0
70 *115:52 *166:38 0
71 *115:52 *166:44 0
72 *115:60 *166:44 0
73 *115:79 *166:38 0
74 *119:10 *166:54 0
75 *121:10 *166:54 0
76 *121:19 *166:54 0
77 *122:27 *166:96 0.000468182
78 *124:16 *166:10 0
79 *124:16 *166:111 0
80 *125:8 *532:A 0
81 *125:8 *166:54 0
82 *132:25 *467:B1 1.54008e-05
83 *144:55 *166:96 0
84 *160:68 *166:96 0
85 *160:78 *439:B 0
*RES
1 *540:X *166:6 20.3502 
2 *166:6 *166:10 1.9982 
3 *166:10 *166:18 45.6135 
4 *166:18 *471:C 20 
5 *166:10 *166:25 1.6171 
6 *166:25 *429:A 20 
7 *166:25 *166:32 2.0497 
8 *166:32 *166:38 46.7774 
9 *166:38 *166:44 27.0658 
10 *166:44 *166:54 33.8315 
11 *166:54 *477:A 20 
12 *166:54 *532:A 29.6923 
13 *166:44 *467:B1 41.1845 
14 *166:38 *424:A 20.7519 
15 *166:32 *166:96 49.3112 
16 *166:96 *439:B 25.5105 
17 *166:6 *166:111 46.4787 
18 *166:111 *166:115 40 
19 *166:115 *480:A 20 
*END

*D_NET *167 0.0128226
*CONN
*I *508:RESET_B I *D sg13g2_dfrbpq_1
*I *507:RESET_B I *D sg13g2_dfrbpq_1
*I *513:RESET_B I *D sg13g2_dfrbpq_1
*I *506:RESET_B I *D sg13g2_dfrbpq_1
*I *510:RESET_B I *D sg13g2_dfrbpq_1
*I *512:RESET_B I *D sg13g2_dfrbpq_1
*I *511:RESET_B I *D sg13g2_dfrbpq_1
*I *509:RESET_B I *D sg13g2_dfrbpq_1
*I *541:X O *D sg13g2_buf_1
*CAP
1 *508:RESET_B 0
2 *507:RESET_B 0.000396363
3 *513:RESET_B 4.72978e-05
4 *506:RESET_B 0
5 *510:RESET_B 0.000137358
6 *512:RESET_B 0.000423566
7 *511:RESET_B 0.000170554
8 *509:RESET_B 0.00016181
9 *541:X 0
10 *167:115 0.000384608
11 *167:87 0.000958345
12 *167:70 0.000989297
13 *167:33 0.000823661
14 *167:31 0.000725095
15 *167:29 0.000966933
16 *167:27 0.00127548
17 *167:10 0.000671189
18 *167:4 0.000545356
19 *167:10 *541:A 7.99451e-05
20 *167:115 *541:A 0.000193065
21 result[2] *167:29 0
22 result[3] *167:27 0
23 result[4] *167:10 0
24 result[4] *167:115 0
25 result[5] *167:115 0.00075569
26 *493:B1 *167:27 0.000288016
27 *493:B1 *167:29 5.28594e-05
28 *493:B2 *509:RESET_B 0
29 *493:B2 *167:10 0
30 *497:B2 *507:RESET_B 0
31 *500:A *510:RESET_B 0
32 *501:B2 *512:RESET_B 0
33 *501:A1 *512:RESET_B 0
34 *502:A *510:RESET_B 0
35 *502:A *512:RESET_B 0
36 *503:A2 *513:RESET_B 0
37 *503:A2 *167:87 0.000856951
38 *506:D *167:70 0
39 *506:D *167:87 7.90177e-05
40 *507:D *507:RESET_B 0
41 *507:CLK *507:RESET_B 0
42 *509:D *509:RESET_B 0.000102537
43 *509:D *167:10 0
44 *510:D *510:RESET_B 0
45 *511:CLK *167:33 0
46 *39:8 *167:115 0
47 *54:22 *167:87 0
48 *77:10 *512:RESET_B 0
49 *82:32 *167:87 0
50 *96:10 *167:27 0
51 *97:8 *167:87 0
52 *115:131 *167:115 0.000234158
53 *115:135 *507:RESET_B 0
54 *115:155 *167:29 0
55 *115:155 *167:31 0
56 *115:157 *167:31 0
57 *151:8 *507:RESET_B 0
58 *153:29 *167:87 0.000290042
59 *153:29 *167:115 4.76874e-05
60 *155:26 *167:87 0.000112525
61 *158:23 *512:RESET_B 0
62 *158:71 *167:29 0.000927032
63 *158:71 *167:87 0
64 *159:53 *167:115 0.000126146
*RES
1 *541:X *167:4 20 
2 *167:4 *167:10 1.80765 
3 *167:10 *509:RESET_B 21.9312 
4 *167:10 *167:27 23.3166 
5 *167:27 *167:29 6.283 
6 *167:29 *167:31 3.3166 
7 *167:31 *167:33 2.3278 
8 *167:33 *511:RESET_B 41.9211 
9 *167:33 *512:RESET_B 44.6453 
10 *167:31 *510:RESET_B 41.5347 
11 *167:29 *167:70 20.7519 
12 *167:70 *506:RESET_B 20 
13 *167:70 *167:87 49.682 
14 *167:87 *513:RESET_B 20.5974 
15 *167:27 *507:RESET_B 43.9449 
16 *167:4 *167:115 45.2839 
17 *167:115 *508:RESET_B 20 
*END

*D_NET *168 0.0102355
*CONN
*I *526:RESET_B I *D sg13g2_dfrbpq_1
*I *524:RESET_B I *D sg13g2_dfrbpq_1
*I *514:RESET_B I *D sg13g2_dfrbpq_1
*I *471:B I *D sg13g2_nand3b_1
*I *476:A I *D sg13g2_nand2_1
*I *525:RESET_B I *D sg13g2_dfrbpq_1
*I *515:RESET_B I *D sg13g2_dfrbpq_1
*I *541:A I *D sg13g2_buf_1
*I *542:X O *D sg13g2_buf_1
*CAP
1 *526:RESET_B 0
2 *524:RESET_B 0.000165399
3 *514:RESET_B 0.000248011
4 *471:B 7.02262e-05
5 *476:A 0.000444971
6 *525:RESET_B 0
7 *515:RESET_B 0
8 *541:A 0.000406674
9 *542:X 0.000504218
10 *168:74 0.000747149
11 *168:72 0.000799934
12 *168:70 0.00102726
13 *168:59 0.000783487
14 *168:55 0.000724863
15 *168:38 0.000483263
16 *168:36 0.000284404
17 *168:10 0.000626488
18 *168:55 *455:B_N 0
19 *168:55 *172:37 0.000111329
20 *168:59 *455:B_N 0
21 *168:59 *172:37 0
22 *168:70 *172:37 0
23 result[4] *541:A 0
24 *455:A *168:70 0
25 *460:B_N *168:70 0.000552982
26 *470:B *476:A 0
27 *471:A_N *476:A 0
28 *480:B *168:72 0
29 *495:A2 *168:10 4.7707e-05
30 *495:A2 *168:36 0.000240118
31 *495:A2 *168:55 0
32 *497:A2 *168:55 0
33 *501:A2 *514:RESET_B 0.000371997
34 *503:A2 *524:RESET_B 0.000241847
35 *505:A1 *514:RESET_B 0
36 *515:D *168:55 0
37 *542:A *168:36 0
38 *578:A *168:36 0.000126381
39 *578:A *168:55 0.000272747
40 *580:A *168:36 0
41 *587:A *471:B 1.54008e-05
42 *605:A *476:A 0
43 *39:8 *168:10 0.000553195
44 *46:16 *168:72 0
45 *48:23 *168:59 0
46 *48:23 *168:70 0
47 *79:12 *168:74 0
48 *85:31 *541:A 0
49 *85:31 *168:10 0
50 *110:25 *476:A 0
51 *110:25 *168:74 0
52 *115:123 *541:A 0
53 *124:16 *524:RESET_B 0
54 *124:16 *168:70 0
55 *160:31 *168:70 0
56 *160:31 *168:72 0
57 *166:18 *471:B 0.000112426
58 *166:18 *168:72 0
59 *166:25 *524:RESET_B 0
60 *167:10 *541:A 7.99451e-05
61 *167:115 *541:A 0.000193065
*RES
1 *542:X *168:10 42.8943 
2 *168:10 *541:A 44.085 
3 *542:X *168:36 42.9561 
4 *168:36 *168:38 20 
5 *168:38 *515:RESET_B 20 
6 *168:38 *168:55 5.7474 
7 *168:55 *168:59 2.4308 
8 *168:59 *525:RESET_B 20 
9 *168:59 *168:70 26.0461 
10 *168:70 *168:72 3.0694 
11 *168:72 *168:74 2.575 
12 *168:74 *476:A 43.9449 
13 *168:74 *471:B 40.7519 
14 *168:72 *514:RESET_B 42.4823 
15 *168:70 *524:RESET_B 41.6171 
16 *168:55 *526:RESET_B 20 
*END

*D_NET *169 0.0138927
*CONN
*I *516:RESET_B I *D sg13g2_dfrbpq_1
*I *519:RESET_B I *D sg13g2_dfrbpq_1
*I *527:RESET_B I *D sg13g2_dfrbpq_1
*I *522:RESET_B I *D sg13g2_dfrbpq_1
*I *530:RESET_B I *D sg13g2_dfrbpq_1
*I *475:B1 I *D sg13g2_o21ai_1
*I *523:RESET_B I *D sg13g2_dfrbpq_1
*I *531:RESET_B I *D sg13g2_dfrbpq_1
*I *543:X O *D sg13g2_buf_1
*CAP
1 *516:RESET_B 0.00101439
2 *519:RESET_B 0.000248013
3 *527:RESET_B 0.000205485
4 *522:RESET_B 4.26982e-05
5 *530:RESET_B 0.000185444
6 *475:B1 0
7 *523:RESET_B 0
8 *531:RESET_B 0.000477556
9 *543:X 0.000291571
10 *169:89 0.000566027
11 *169:62 0.000428569
12 *169:47 0.000502293
13 *169:30 0.000832641
14 *169:26 0.00077367
15 *169:24 0.00053202
16 *169:20 0.000708209
17 *169:14 0.00143733
18 *169:10 0.000301288
19 *427:B1 *531:RESET_B 0
20 *427:B1 *169:47 0
21 *427:B1 *169:62 0
22 *434:B *169:24 0.00023464
23 *434:B *169:89 0.000444489
24 *442:B1 *516:RESET_B 0
25 *444:A *516:RESET_B 0.000306794
26 *462:A2 *519:RESET_B 0.000304407
27 *462:A2 *527:RESET_B 0
28 *462:A2 *169:10 4.7274e-05
29 *469:A *531:RESET_B 0
30 *475:A1 *169:62 0
31 *479:B *169:62 0
32 *501:A2 *530:RESET_B 0.000274583
33 *538:A *516:RESET_B 0.000427429
34 *538:A *169:14 2.43395e-05
35 *538:A *169:20 0.000112426
36 *591:A *169:62 0
37 *52:29 *169:26 0
38 *52:29 *169:30 0
39 *62:25 *169:10 0
40 *63:12 *516:RESET_B 0
41 *69:10 *522:RESET_B 8.0216e-05
42 *69:10 *169:26 0
43 *79:12 *531:RESET_B 0
44 *79:27 *531:RESET_B 0
45 *82:32 *516:RESET_B 0
46 *82:32 *169:20 0
47 *83:8 *169:89 0.000285394
48 *86:12 *519:RESET_B 0
49 *86:12 *527:RESET_B 0.000304697
50 *106:10 *516:RESET_B 0.000727896
51 *106:18 *516:RESET_B 0.000339135
52 *108:10 *169:20 0.000240196
53 *115:284 *169:10 0
54 *115:340 *516:RESET_B 0
55 *122:6 *522:RESET_B 8.01776e-05
56 *122:27 *169:26 0.000554491
57 *127:23 *169:26 0
58 *127:23 *169:30 0
59 *127:23 *169:62 0.000556913
60 *160:68 *530:RESET_B 0
61 *163:10 *169:10 0
*RES
1 *543:X *169:10 42.6471 
2 *169:10 *169:14 20.1648 
3 *169:14 *169:20 23.7595 
4 *169:20 *169:24 2.1527 
5 *169:24 *169:26 3.811 
6 *169:26 *169:30 22.8222 
7 *169:30 *531:RESET_B 24.8616 
8 *169:30 *169:47 0.8858 
9 *169:47 *523:RESET_B 20 
10 *169:47 *169:62 45.1294 
11 *169:62 *475:B1 20 
12 *169:26 *530:RESET_B 41.8334 
13 *169:24 *522:RESET_B 40.5356 
14 *169:20 *169:89 22.0806 
15 *169:89 *527:RESET_B 22.0497 
16 *169:89 *519:RESET_B 22.3999 
17 *169:14 *516:RESET_B 31.021 
*END

*D_NET *170 0.00732432
*CONN
*I *518:RESET_B I *D sg13g2_dfrbpq_1
*I *528:RESET_B I *D sg13g2_dfrbpq_1
*I *520:RESET_B I *D sg13g2_dfrbpq_1
*I *521:RESET_B I *D sg13g2_dfrbpq_1
*I *529:RESET_B I *D sg13g2_dfrbpq_1
*I *517:RESET_B I *D sg13g2_dfrbpq_1
*I *544:X O *D sg13g2_buf_1
*CAP
1 *518:RESET_B 2.92584e-05
2 *528:RESET_B 0.000480227
3 *520:RESET_B 0
4 *521:RESET_B 0
5 *529:RESET_B 0.000345244
6 *517:RESET_B 3.31961e-05
7 *544:X 0.000668983
8 *170:53 0.000274722
9 *170:45 0.000834283
10 *170:38 0.00024098
11 *170:25 0.00107685
12 *170:12 0.000744893
13 *170:10 0.000839974
14 *170:25 *173:8 0
15 *170:25 *174:8 0.000288172
16 *170:25 *174:29 0.000687599
17 *437:B1 *170:25 0
18 *520:D *528:RESET_B 0
19 *520:D *170:53 0
20 *528:D *528:RESET_B 0
21 *528:CLK *528:RESET_B 0
22 *555:A *517:RESET_B 0
23 *555:A *170:12 0
24 *562:A *170:10 0
25 *50:8 *529:RESET_B 0
26 *50:8 *170:25 0
27 *50:12 *528:RESET_B 0.000194521
28 *50:12 *170:38 0.000274622
29 *50:12 *170:45 0.000129603
30 *51:25 *529:RESET_B 0
31 *63:12 *170:53 0
32 *64:16 *517:RESET_B 0
33 *82:10 *170:53 0
34 *106:10 *170:10 0
35 *106:18 *170:25 0.000181192
36 *115:318 *529:RESET_B 0
37 *115:318 *170:25 0
38 *115:318 *170:53 0
39 *115:331 *170:25 0
40 *137:20 *170:10 0
41 *137:20 *170:12 0
42 *137:20 *170:25 0
43 *162:18 *170:10 0
*RES
1 *544:X *170:10 27.1117 
2 *170:10 *170:12 1.6171 
3 *170:12 *517:RESET_B 20.3193 
4 *170:12 *170:25 27.5911 
5 *170:25 *529:RESET_B 43.811 
6 *170:25 *170:38 21.8334 
7 *170:38 *521:RESET_B 20 
8 *170:38 *170:45 0.9682 
9 *170:45 *170:53 42.7766 
10 *170:53 *520:RESET_B 20 
11 *170:45 *528:RESET_B 25.6444 
12 *170:10 *518:RESET_B 20.3502 
*END

*D_NET *171 0.00263337
*CONN
*I *583:A I *D sg13g2_buf_1
*I *455:B_N I *D sg13g2_nor2b_1
*I *454:X O *D sg13g2_and2_1
*CAP
1 *583:A 4.93039e-05
2 *455:B_N 0.000695664
3 *454:X 0.000101663
4 *171:8 0.000846631
5 *455:B_N *172:37 0.000181137
6 *171:8 *172:37 0.000231013
7 bit_active[0] *171:8 0
8 *495:A2 *583:A 7.58489e-05
9 *497:A2 *455:B_N 0.000436713
10 *525:D *455:B_N 1.54008e-05
11 *48:23 *455:B_N 0
12 *115:108 *455:B_N 0
13 *168:55 *455:B_N 0
14 *168:59 *455:B_N 0
*RES
1 *454:X *171:8 41.0918 
2 *171:8 *455:B_N 47.2615 
3 *171:8 *583:A 40.5073 
*END

*D_NET *172 0.00500902
*CONN
*I *584:A I *D sg13g2_buf_1
*I *450:B_N I *D sg13g2_nor2b_1
*I *449:X O *D sg13g2_and2_1
*CAP
1 *584:A 0
2 *450:B_N 6.90119e-05
3 *449:X 0.000442805
4 *172:37 0.000985685
5 *172:18 0.00151299
6 *172:12 0.000901101
7 bit_active[2] *172:37 0
8 bit_active[3] *172:37 0
9 bit_active[6] *172:18 0
10 *445:A *172:18 0
11 *447:A1 *172:12 7.93838e-05
12 *450:A *450:B_N 0
13 *453:A *172:37 0
14 *455:B_N *172:37 0.000181137
15 *489:B *172:18 0
16 *495:A2 *172:37 0
17 *534:A *172:18 0
18 *582:A *172:37 0
19 *48:23 *172:37 0
20 *84:27 *450:B_N 1.54008e-05
21 *84:27 *172:18 1.54008e-05
22 *100:14 *172:18 0
23 *102:16 *172:18 0.000176189
24 *102:29 *172:18 0.000175817
25 *104:22 *172:37 0
26 *115:262 *172:18 0.000111758
27 *122:12 *172:12 0
28 *164:22 *172:37 0
29 *164:48 *172:18 0
30 *164:56 *172:12 0
31 *168:55 *172:37 0.000111329
32 *168:59 *172:37 0
33 *168:70 *172:37 0
34 *171:8 *172:37 0.000231013
*RES
1 *449:X *172:12 44.1715 
2 *172:12 *172:18 24.5629 
3 *172:18 *450:B_N 20.8858 
4 *172:18 *172:37 49.5481 
5 *172:37 *584:A 20 
*END

*D_NET *173 0.0108838
*CONN
*I *585:A I *D sg13g2_buf_1
*I *445:B_N I *D sg13g2_nor2b_1
*I *444:X O *D sg13g2_and2_1
*CAP
1 *585:A 0.000366459
2 *445:B_N 0.000120318
3 *444:X 0.000372805
4 *173:37 0.00152622
5 *173:31 0.00159461
6 *173:18 0.00069802
7 *173:14 0.000488387
8 *173:8 0.000718344
9 *173:8 *174:29 0
10 *173:37 *174:29 0.00140979
11 bit_active[1] *585:A 0
12 bit_active[2] *173:37 0
13 bit_active[3] *173:37 0
14 bit_active[4] *585:A 0
15 bit_active[4] *173:37 0
16 dac_code[2] *173:31 0
17 dac_code[3] *173:31 0
18 dac_code[4] *173:37 0.0001127
19 *489:B *445:B_N 0.000143652
20 *490:B *173:31 0
21 *582:A *585:A 0.000529254
22 *21:10 *173:31 0
23 *32:8 *173:31 0
24 *60:12 *173:8 0
25 *62:25 *173:31 0
26 *62:46 *445:B_N 6.40363e-05
27 *62:46 *173:18 0.00014419
28 *62:46 *173:31 0
29 *115:273 *445:B_N 0.000207605
30 *115:273 *173:18 6.43908e-05
31 *115:284 *173:18 0.000175935
32 *134:18 *173:31 0.000773216
33 *137:20 *173:8 0.000127793
34 *139:16 *173:14 0.000699228
35 *144:18 *173:14 0.000525182
36 *144:55 *173:31 0
37 *161:12 *173:31 0
38 *161:23 *173:31 0
39 *162:37 *173:8 2.16263e-05
40 *170:25 *173:8 0
*RES
1 *444:X *173:8 43.4406 
2 *173:8 *173:14 44.429 
3 *173:14 *173:18 21.6171 
4 *173:18 *445:B_N 21.4008 
5 *173:18 *173:31 45.047 
6 *173:31 *173:37 33.1531 
7 *173:37 *585:A 43.5638 
*END

*D_NET *174 0.00846068
*CONN
*I *586:A I *D sg13g2_buf_1
*I *440:B_N I *D sg13g2_nor2b_1
*I *439:X O *D sg13g2_and2_1
*CAP
1 *586:A 0
2 *440:B_N 4.34621e-05
3 *439:X 8.61053e-05
4 *174:29 0.00273724
5 *174:8 0.00286681
6 bit_active[5] *174:29 0
7 dac_code[3] *174:29 0
8 dac_code[4] *174:29 0
9 dac_code[5] *174:29 0
10 dac_code[7] *174:29 0
11 dac_code_n[5] *174:29 0
12 dac_code_n[6] *174:29 0.000181279
13 dac_code_n[7] *174:29 0
14 *442:B1 *440:B_N 8.01116e-05
15 *447:A1 *174:29 0
16 *484:B *174:29 0
17 *485:B *174:29 0
18 *537:A *174:29 0
19 *557:A *174:29 0
20 *57:8 *174:29 0
21 *82:10 *440:B_N 8.01116e-05
22 *115:331 *174:8 0
23 *134:26 *174:29 0
24 *142:33 *174:29 0
25 *162:37 *174:29 0
26 *164:12 *174:29 0
27 *170:25 *174:8 0.000288172
28 *170:25 *174:29 0.000687599
29 *173:8 *174:29 0
30 *173:37 *174:29 0.00140979
*RES
1 *439:X *174:8 41.339 
2 *174:8 *440:B_N 40.5356 
3 *174:8 *174:29 48.8503 
4 *174:29 *586:A 20 
*END

*D_NET *175 0.00202295
*CONN
*I *592:A I *D sg13g2_nor2_1
*I *475:A2 I *D sg13g2_o21ai_1
*I *474:Y O *D sg13g2_o21ai_1
*CAP
1 *592:A 0.000262923
2 *475:A2 0
3 *474:Y 0
4 *175:12 0.000523841
5 *175:4 0.000786764
6 *175:12 *591:B 0
7 *175:12 *603:A 0
8 *175:12 *188:8 0
9 *474:B1 *175:12 0.000144783
10 *591:A *175:12 1.54008e-05
11 *45:23 *175:12 0
12 *113:8 *175:12 0.000289234
13 *126:10 *175:12 0
*RES
1 *474:Y *175:4 20 
2 *175:4 *175:12 45.3972 
3 *175:12 *475:A2 20 
4 *175:4 *592:A 23.4814 
*END

*D_NET *176 0.0024569
*CONN
*I *478:B I *D sg13g2_nand2b_1
*I *605:B I *D sg13g2_nor2_1
*I *604:Y O *D sg13g2_nor2_1
*CAP
1 *478:B 0.000576128
2 *605:B 0
3 *604:Y 0
4 *176:12 0.000198632
5 *176:4 0.00077476
6 *176:12 *189:8 0.000340794
7 *424:A *478:B 9.65862e-05
8 *53:8 *478:B 2.19969e-05
9 *53:10 *478:B 4.72904e-05
10 *53:12 *478:B 0.000160513
11 *89:8 *478:B 0
12 *115:60 *478:B 0
13 *166:44 *478:B 0.000240202
*RES
1 *604:Y *176:4 20 
2 *176:4 *176:12 42.369 
3 *176:12 *605:B 20 
4 *176:4 *478:B 26.4478 
*END

*D_NET *177 0.00173652
*CONN
*I *593:A I *D sg13g2_dlygate4sd3_1
*I *477:B I *D sg13g2_nor2_1
*I *426:Y O *D sg13g2_inv_1
*CAP
1 *593:A 0
2 *477:B 0.000232359
3 *426:Y 0.000635902
4 *177:10 0.000868262
5 *177:10 *596:A 0
6 *177:10 *182:10 0
7 *475:A1 *177:10 0
8 *589:A *177:10 0
9 *591:A *177:10 0
10 *125:8 *177:10 0
*RES
1 *426:Y *177:10 47.1276 
2 *177:10 *477:B 42.8222 
3 *177:10 *593:A 40 
*END

*D_NET *178 0.00127833
*CONN
*I *587:B I *D sg13g2_nor2_1
*I *588:Y O *D sg13g2_nor2_1
*CAP
1 *587:B 0
2 *588:Y 0.000522087
3 *178:14 0.000522087
4 *470:B *178:14 0
5 *115:60 *178:14 0
6 *117:8 *178:14 0.000234158
*RES
1 *588:Y *178:14 45.6341 
2 *178:14 *587:B 40 
*END

*D_NET *179 0.000391839
*CONN
*I *590:A I *D sg13g2_dlygate4sd3_1
*I *589:X O *D sg13g2_dlygate4sd3_1
*CAP
1 *590:A 0.00019592
2 *589:X 0.00019592
3 *115:8 *590:A 0
4 *115:14 *590:A 0
*RES
1 *589:X *590:A 41.9673 
*END

*D_NET *180 0.000875605
*CONN
*I *591:B I *D sg13g2_nor2_1
*I *592:Y O *D sg13g2_nor2_1
*CAP
1 *591:B 0.000349998
2 *592:Y 0.000349998
3 *591:B *603:A 0
4 *113:16 *591:B 0.000175608
5 *126:10 *591:B 0
6 *127:12 *591:B 0
7 *175:12 *591:B 0
*RES
1 *592:Y *591:B 43.8419 
*END

*D_NET *181 0.000356249
*CONN
*I *594:A I *D sg13g2_dlygate4sd3_1
*I *593:X O *D sg13g2_dlygate4sd3_1
*CAP
1 *594:A 0.000178125
2 *593:X 0.000178125
3 *125:8 *594:A 0
4 *166:54 *594:A 0
*RES
1 *593:X *594:A 41.751 
*END

*D_NET *182 0.000871201
*CONN
*I *595:A I *D sg13g2_dlygate4sd3_1
*I *594:X O *D sg13g2_dlygate4sd3_1
*CAP
1 *595:A 0
2 *594:X 0.00026479
3 *182:10 0.00026479
4 *182:10 *188:8 0
5 *125:8 *182:10 0
6 *126:10 *182:10 0.00034162
7 *177:10 *182:10 0
*RES
1 *594:X *182:10 43.2033 
2 *182:10 *595:A 40 
*END

*D_NET *183 0.000364316
*CONN
*I *596:A I *D sg13g2_dlygate4sd3_1
*I *595:X O *D sg13g2_dlygate4sd3_1
*CAP
1 *596:A 0.000182158
2 *595:X 0.000182158
3 *591:A *596:A 0
4 *45:23 *596:A 0
5 *125:8 *596:A 0
6 *177:10 *596:A 0
*RES
1 *595:X *596:A 41.9982 
*END

*D_NET *184 9.90264e-05
*CONN
*I *598:A I *D sg13g2_dlygate4sd3_1
*I *597:X O *D sg13g2_dlygate4sd3_1
*CAP
1 *598:A 4.95132e-05
2 *597:X 4.95132e-05
*RES
1 *597:X *598:A 40.5974 
*END

*D_NET *185 0.000489918
*CONN
*I *599:A I *D sg13g2_dlygate4sd3_1
*I *598:X O *D sg13g2_dlygate4sd3_1
*CAP
1 *599:A 0.000244959
2 *598:X 0.000244959
3 *118:10 *599:A 0
*RES
1 *598:X *599:A 42.8428 
*END

*D_NET *186 0.000330935
*CONN
*I *601:A I *D sg13g2_dlygate4sd3_1
*I *600:X O *D sg13g2_dlygate4sd3_1
*CAP
1 *601:A 0.000165467
2 *600:X 0.000165467
3 *120:10 *601:A 0
4 *125:8 *601:A 0
*RES
1 *600:X *601:A 41.4008 
*END

*D_NET *187 0.00145246
*CONN
*I *602:A I *D sg13g2_dlygate4sd3_1
*I *601:X O *D sg13g2_dlygate4sd3_1
*CAP
1 *602:A 0.000324383
2 *601:X 0.000123441
3 *187:8 0.000447823
4 cmp_fire *602:A 0.000112651
5 *473:C *602:A 0.000209763
6 *45:23 *187:8 0.000234398
7 *91:8 *187:8 0
8 *166:54 *602:A 0
*RES
1 *601:X *187:8 41.5862 
2 *187:8 *602:A 43.5638 
*END

*D_NET *188 0.00104939
*CONN
*I *603:A I *D sg13g2_dlygate4sd3_1
*I *602:X O *D sg13g2_dlygate4sd3_1
*CAP
1 *603:A 0.000181278
2 *602:X 0.000343417
3 *188:8 0.000524695
4 *466:A *188:8 0
5 *473:B *188:8 0
6 *591:B *603:A 0
7 *113:16 *603:A 0
8 *175:12 *603:A 0
9 *175:12 *188:8 0
10 *182:10 *188:8 0
*RES
1 *602:X *188:8 43.811 
2 *188:8 *603:A 41.6171 
*END

*D_NET *189 0.00085889
*CONN
*I *604:B I *D sg13g2_nor2_1
*I *605:Y O *D sg13g2_nor2_1
*CAP
1 *604:B 3.06729e-05
2 *605:Y 0.000130373
3 *189:8 0.000161046
4 *470:B *604:B 1.54008e-05
5 *115:60 *604:B 0
6 *117:8 *189:8 0.000180603
7 *176:12 *189:8 0.000340794
*RES
1 *605:Y *189:8 41.8334 
2 *189:8 *604:B 40.3193 
*END
