*SPEF "ieee 1481-1999"
*DESIGN "sar_ctrl"
*DATE "00:22:15 Sunday August 16, 2026"
*VENDOR "The OpenROAD Project"
*PROGRAM "OpenROAD"
*VERSION "26Q1-1024-gdcf36133a"
*DESIGN_FLOW "NAME_SCOPE LOCAL" "PIN_CAP NONE"
*DIVIDER /
*DELIMITER :
*BUS_DELIMITER []
*T_UNIT 1 NS
*C_UNIT 1 PF
*R_UNIT 1 OHM
*L_UNIT 1 HENRY

*NAME_MAP
*3 busy
*4 clk
*5 clk_cmp
*6 cmp
*7 cmp_n
*8 dac_code[0]
*9 dac_code[1]
*10 dac_code[2]
*11 dac_code[3]
*12 dac_code[4]
*13 dac_code[5]
*14 dac_code[6]
*15 dac_code[7]
*16 dac_code_n[0]
*17 dac_code_n[1]
*18 dac_code_n[2]
*19 dac_code_n[3]
*20 dac_code_n[4]
*21 dac_code_n[5]
*22 dac_code_n[6]
*23 dac_code_n[7]
*24 done
*25 hold
*26 result[0]
*27 result[1]
*28 result[2]
*29 result[3]
*30 result[4]
*31 result[5]
*32 result[6]
*33 result[7]
*34 rst_n
*35 sample
*36 start
*37 _000_
*38 _001_
*39 _002_
*40 _003_
*41 _004_
*42 _005_
*43 _006_
*44 _007_
*45 _008_
*46 _009_
*47 _011_
*48 _012_
*49 _013_
*50 _014_
*51 _015_
*52 _016_
*53 _017_
*54 _018_
*55 _019_
*56 _020_
*57 _021_
*58 _022_
*59 _023_
*60 _024_
*61 _025_
*62 _026_
*63 _027_
*64 _028_
*65 _029_
*66 _030_
*67 _031_
*68 _032_
*69 _033_
*70 _034_
*71 _035_
*72 _036_
*73 _037_
*74 _038_
*75 _039_
*76 _040_
*77 _041_
*78 _042_
*79 _043_
*80 _044_
*81 _045_
*82 _046_
*83 _047_
*84 _048_
*85 _049_
*86 _050_
*87 _051_
*88 _052_
*89 _053_
*90 _054_
*91 _055_
*92 _056_
*93 _057_
*94 _058_
*95 _059_
*96 _060_
*97 _061_
*98 _062_
*99 _063_
*100 _064_
*101 _065_
*102 _066_
*103 _067_
*104 _068_
*105 _069_
*106 _070_
*107 _071_
*108 _072_
*109 _073_
*110 _074_
*111 _075_
*112 _076_
*113 _077_
*114 _078_
*115 _079_
*116 _080_
*117 _081_
*118 _082_
*119 _083_
*120 _084_
*121 _085_
*122 _086_
*123 _087_
*124 _088_
*125 _089_
*126 _090_
*127 _091_
*128 _092_
*129 _093_
*130 _094_
*131 _095_
*132 _096_
*133 _097_
*134 _098_
*135 _099_
*136 _100_
*137 _101_
*138 _102_
*139 _103_
*140 _104_
*141 _105_
*142 _106_
*143 _107_
*144 _108_
*145 _109_
*146 _110_
*147 _111_
*148 _112_
*149 bit_idx\[0\]
*150 bit_idx\[1\]
*151 bit_idx\[2\]
*152 clknet_0_clk
*153 clknet_2_0__leaf_clk
*154 clknet_2_1__leaf_clk
*155 clknet_2_2__leaf_clk
*156 clknet_2_3__leaf_clk
*157 cmp_q
*158 cmp_qb
*159 last_n
*160 net1
*161 net10
*162 net11
*163 net12
*164 net13
*165 net14
*166 net15
*167 net16
*168 net17
*169 net18
*170 net19
*171 net2
*172 net20
*173 net21
*174 net22
*175 net23
*176 net24
*177 net25
*178 net26
*179 net27
*180 net28
*181 net29
*182 net3
*183 net30
*184 net31
*185 net32
*186 net33
*187 net34
*188 net35
*189 net36
*190 net37
*191 net38
*192 net39
*193 net4
*194 net40
*195 net41
*196 net42
*197 net43
*198 net44
*199 net45
*200 net46
*201 net47
*202 net48
*203 net5
*204 net7
*205 net8
*206 net9
*207 sample_p
*208 start_q
*209 state\[0\]
*210 state\[1\]
*211 state\[2\]
*212 FILLER_0_0
*213 FILLER_0_33
*214 FILLER_0_46
*215 FILLER_0_55
*216 FILLER_0_80
*217 FILLER_10_0
*218 FILLER_10_15
*219 FILLER_10_24
*220 FILLER_10_36
*221 FILLER_10_47
*222 FILLER_10_5
*223 FILLER_10_58
*224 FILLER_10_65
*225 FILLER_10_76
*226 FILLER_10_80
*227 FILLER_11_34
*228 FILLER_11_61
*229 FILLER_11_75
*230 FILLER_11_77
*231 FILLER_12_27
*232 FILLER_12_42
*233 FILLER_12_49
*234 FILLER_12_59
*235 FILLER_12_79
*236 FILLER_12_81
*237 FILLER_13_20
*238 FILLER_13_24
*239 FILLER_13_31
*240 FILLER_13_37
*241 FILLER_13_4
*242 FILLER_13_45
*243 FILLER_13_52
*244 FILLER_13_81
*245 FILLER_13_9
*246 FILLER_14_39
*247 FILLER_15_0
*248 FILLER_15_17
*249 FILLER_15_24
*250 FILLER_15_29
*251 FILLER_15_36
*252 FILLER_15_38
*253 FILLER_15_51
*254 FILLER_15_63
*255 FILLER_15_81
*256 FILLER_16_27
*257 FILLER_16_35
*258 FILLER_16_40
*259 FILLER_16_53
*260 FILLER_17_0
*261 FILLER_17_2
*262 FILLER_17_40
*263 FILLER_18_0
*264 FILLER_18_2
*265 FILLER_18_49
*266 FILLER_19_0
*267 FILLER_19_11
*268 FILLER_19_30
*269 FILLER_19_39
*270 FILLER_19_51
*271 FILLER_19_7
*272 FILLER_1_46
*273 FILLER_20_39
*274 FILLER_20_48
*275 FILLER_21_27
*276 FILLER_21_29
*277 FILLER_21_78
*278 FILLER_22_0
*279 FILLER_22_25
*280 FILLER_22_32
*281 FILLER_22_39
*282 FILLER_22_46
*283 FILLER_22_53
*284 FILLER_22_60
*285 FILLER_22_67
*286 FILLER_22_7
*287 FILLER_22_74
*288 FILLER_22_81
*289 FILLER_2_56
*290 FILLER_4_0
*291 FILLER_4_45
*292 FILLER_5_27
*293 FILLER_5_72
*294 FILLER_6_49
*295 FILLER_7_4
*296 FILLER_8_4
*297 FILLER_8_40
*298 FILLER_8_54
*299 FILLER_8_56
*300 FILLER_8_62
*301 FILLER_8_81
*302 FILLER_8_9
*303 FILLER_9_54
*304 FILLER_9_61
*305 FILLER_9_81
*306 _113_
*307 _114_
*308 _115_
*309 _116_
*310 _117_
*311 _118_
*312 _119_
*313 _120_
*314 _121_
*315 _122_
*316 _123_
*317 _124__47
*318 _125_
*319 _126_
*320 _127_
*321 _128_
*322 _129_
*323 _130_
*324 _131_
*325 _132_
*326 _133_
*327 _134_
*328 _135_
*329 _136_
*330 _137_
*331 _138_
*332 _139_
*333 _140_
*334 _141_
*335 _142_
*336 _143_
*337 _144_
*338 _145_
*339 _146_
*340 _147_
*341 _148_
*342 _149_
*343 _150_
*344 _151_
*345 _152_
*346 _153_
*347 _154_
*348 _155_
*349 _156_
*350 _157_
*351 _158_
*352 _159_
*353 _160_
*354 _161_
*355 _162_
*356 _163_
*357 _164_
*358 _165_
*359 _166_
*360 _167_
*361 _168_
*362 _169_
*363 _170_
*364 _171_
*365 _172_
*366 _173_
*367 _174_
*368 _175_
*369 _176_
*370 _177_
*371 _178_
*372 _179_
*373 _180_
*374 _181_
*375 _182_
*376 _183_
*377 _184_
*378 _185_
*379 _186_
*380 _187_
*381 _188_
*382 _189_
*383 _190_
*384 _191_
*385 _192_
*386 _193_
*387 _194_
*388 _195_
*389 _196_
*390 _197_
*391 _198_
*392 _199_
*393 _200_
*394 _201_
*395 _202_
*396 _203_
*397 _204_
*398 _205_
*399 _206_
*400 _207_
*401 _208_
*402 _209_
*403 _210_
*404 _211_
*405 _212_
*406 _213_
*407 _214_
*408 _215_
*409 _216_
*410 _217_
*411 _218_
*412 _219_
*413 _220_
*414 _221_
*415 _222_
*416 _223_
*417 _224_
*418 _225_
*419 _226_
*420 _227_
*421 _228_
*422 _229_
*423 _230_
*424 _231_
*425 _232_
*426 _233_
*427 _234_
*428 _235_
*429 _236__48
*430 _237_
*431 _238_
*432 _239_
*433 _240_
*434 _241_
*435 _242_
*436 _243_
*437 _244_
*438 _245_
*439 _246_
*440 _247_
*441 _248_
*442 _249_
*443 _250_
*444 _251_
*445 _252_
*446 _253_
*447 _254_
*448 _255_
*449 _256_
*450 _257_
*451 _258_
*452 _259_
*453 _260_
*454 _261_
*455 _262_
*456 _263_
*457 clkbuf_0_clk
*458 clkbuf_2_0__f_clk
*459 clkbuf_2_1__f_clk
*460 clkbuf_2_2__f_clk
*461 clkbuf_2_3__f_clk
*462 clkload0
*463 clkload1
*464 clkload2
*465 fanout34
*466 fanout35
*467 fanout36
*468 fanout37
*469 fanout38
*470 fanout39
*471 fanout40
*472 fanout41
*473 fanout42
*474 fanout43
*475 fanout44
*476 fanout45
*477 fanout46
*478 input1
*479 input2
*480 input3
*481 input4
*482 output10
*483 output11
*484 output12
*485 output13
*486 output14
*487 output15
*488 output16
*489 output17
*490 output18
*491 output19
*492 output20
*493 output21
*494 output22
*495 output23
*496 output24
*497 output25
*498 output26
*499 output27
*500 output28
*501 output29
*502 output30
*503 output31
*504 output32
*505 output33
*506 output5
*507 output6
*508 output7
*509 output8
*510 output9
*511 u_sr_q
*512 u_sr_qb

*PORTS
busy O
clk I
clk_cmp O
cmp I
cmp_n I
dac_code[0] O
dac_code[1] O
dac_code[2] O
dac_code[3] O
dac_code[4] O
dac_code[5] O
dac_code[6] O
dac_code[7] O
dac_code_n[0] O
dac_code_n[1] O
dac_code_n[2] O
dac_code_n[3] O
dac_code_n[4] O
dac_code_n[5] O
dac_code_n[6] O
dac_code_n[7] O
done O
hold O
result[0] O
result[1] O
result[2] O
result[3] O
result[4] O
result[5] O
result[6] O
result[7] O
rst_n I
sample O
start I

*D_NET *3 0.00414942
*CONN
*P busy O
*I *506:X O *D sg13g2_buf_1
*CAP
1 busy 0.000286202
2 *506:X 0.000374761
3 *3:12 0.00169995
4 *3:8 0.00178851
5 busy dac_code[6] 0
6 busy dac_code[7] 0
7 busy done 0
8 *3:8 *504:A 0
9 *3:8 *44:29 0
10 *3:8 *203:16 0
11 *3:12 *15:16 0
*RES
1 *506:X *3:8 43.0694 
2 *3:8 *3:12 33.5136 
3 *3:12 busy 42.5441 
*END

*D_NET *4 0.00569716
*CONN
*P clk I
*I *457:A I *D sg13g2_buf_16
*CAP
1 clk 0.00118569
2 *457:A 0
3 *4:16 0
4 *4:10 0.0016629
5 *4:8 0.00284858
6 *4:8 *350:C 0
7 *4:8 *64:10 0
8 *4:8 *80:14 0
9 *4:8 *85:14 0
10 *4:8 *200:37 0
11 *4:8 *210:69 0
*RES
1 clk *4:8 32.0613 
2 *4:8 *4:10 18.0559 
3 *4:10 *4:16 40 
4 *4:16 *457:A 20 
*END

*D_NET *5 0.000746797
*CONN
*P clk_cmp O
*I *507:X O *D sg13g2_buf_1
*CAP
1 clk_cmp 0.000373399
2 *507:X 0.000373399
3 clk_cmp *507:A 0
4 clk_cmp *203:12 0
*RES
1 *507:X clk_cmp 44.2024 
*END

*D_NET *6 0.00337472
*CONN
*P cmp I
*I *478:A I *D sg13g2_buf_1
*CAP
1 cmp 0.00153691
2 *478:A 0
3 *6:11 0.00153691
4 *6:11 *441:D 0.000177739
5 *6:11 *37:10 0
6 *6:11 *137:10 0
7 *6:11 *180:16 0
8 *6:11 *180:26 4.27961e-05
9 *6:11 *185:30 0
10 *6:11 *188:30 0
11 *6:11 *188:54 0
12 *6:11 *188:60 8.03692e-05
13 *6:11 *203:12 0
*RES
1 cmp *6:11 34.8011 
2 *6:11 *478:A 20 
*END

*D_NET *7 0.000630916
*CONN
*P cmp_n I
*I *479:A I *D sg13g2_buf_1
*CAP
1 cmp_n 0.000275273
2 *479:A 0.000275273
3 *479:A *151:10 8.03692e-05
*RES
1 cmp_n *479:A 43.4917 
*END

*D_NET *8 0.00212621
*CONN
*P dac_code[0] O
*I *508:X O *D sg13g2_buf_1
*CAP
1 dac_code[0] 0.000766183
2 *508:X 3.53773e-05
3 *8:8 0.000801561
4 dac_code[0] dac_code[1] 0.00014497
5 dac_code[0] dac_code_n[7] 1.54556e-05
6 *8:8 *161:12 0.00018128
7 *8:8 *180:16 0.000181387
*RES
1 *508:X *8:8 40.8446 
2 *8:8 dac_code[0] 26.6744 
*END

*D_NET *9 0.0049312
*CONN
*P dac_code[1] O
*I *509:X O *D sg13g2_buf_1
*CAP
1 dac_code[1] 0.00104116
2 *509:X 0.000823137
3 *9:10 0.0018643
4 dac_code[1] dac_code[2] 4.78134e-05
5 dac_code[1] dac_code[4] 0
6 dac_code[1] *322:A 0.00024471
7 dac_code[1] *494:A 0.00043582
8 dac_code[1] *34:27 0.000329291
9 dac_code[1] *161:26 0
10 *9:10 *446:CLK 0
11 *9:10 *47:10 0
12 *9:10 *153:8 0
13 *9:10 *167:26 0
14 *9:10 *168:12 0
15 *9:10 *183:18 0
16 *9:10 *197:56 0
17 *9:10 *197:101 0
18 dac_code[0] dac_code[1] 0.00014497
*RES
1 *509:X *9:10 47.0967 
2 *9:10 dac_code[1] 30.3721 
*END

*D_NET *10 0.00488315
*CONN
*P dac_code[2] O
*I *510:X O *D sg13g2_buf_1
*CAP
1 dac_code[2] 0.000480206
2 *510:X 0.000906227
3 *10:20 0.000825352
4 *10:14 0.00125137
5 dac_code[2] dac_code[3] 0.000176858
6 dac_code[2] dac_code[4] 0
7 *10:14 result[0] 7.9706e-05
8 *10:14 *322:A 0
9 *10:14 *341:A2 0
10 *10:14 *440:CLK 2.14736e-05
11 *10:14 *455:CLK 0.000283647
12 *10:14 *162:32 0.000392933
13 *10:14 *163:64 0
14 *10:14 *167:22 0
15 *10:14 *180:16 0
16 *10:14 *197:28 2.14736e-05
17 *10:14 *197:62 0
18 *10:14 *205:8 0.000396087
19 *10:20 *34:15 0
20 dac_code[1] dac_code[2] 4.78134e-05
*RES
1 *510:X *10:14 48.7241 
2 *10:14 *10:20 43.3475 
3 *10:20 dac_code[2] 24.2745 
*END

*D_NET *11 0.00225633
*CONN
*P dac_code[3] O
*I *482:X O *D sg13g2_buf_1
*CAP
1 dac_code[3] 0.00047263
2 *482:X 0
3 *11:16 0.000780546
4 *11:6 0.000307916
5 dac_code[3] dac_code[4] 0.000165849
6 dac_code[3] *322:A 0
7 *11:16 *34:9 0
8 *11:16 *34:15 0.000352533
9 *11:16 *169:12 0
10 dac_code[2] dac_code[3] 0.000176858
*RES
1 *482:X *11:6 40 
2 *11:6 *11:16 43.1827 
3 *11:16 dac_code[3] 24.5114 
*END

*D_NET *12 0.00196096
*CONN
*P dac_code[4] O
*I *483:X O *D sg13g2_buf_1
*CAP
1 dac_code[4] 0.000809424
2 *483:X 0.000809424
3 dac_code[4] dac_code[5] 0
4 dac_code[4] *320:A 0.000176264
5 dac_code[4] *322:A 0
6 dac_code[1] dac_code[4] 0
7 dac_code[2] dac_code[4] 0
8 dac_code[3] dac_code[4] 0.000165849
*RES
1 *483:X dac_code[4] 27.9722 
*END

*D_NET *13 0.00193078
*CONN
*P dac_code[5] O
*I *484:X O *D sg13g2_buf_1
*CAP
1 dac_code[5] 0.000766257
2 *484:X 0.000766257
3 dac_code[5] dac_code[6] 0.000133058
4 dac_code[5] *320:A 7.88655e-05
5 dac_code[5] *320:B 4.19117e-05
6 dac_code[5] *31:14 0
7 dac_code[5] *161:26 0.000144434
8 dac_code[5] *191:28 0
9 dac_code[4] dac_code[5] 0
*RES
1 *484:X dac_code[5] 26.9902 
*END

*D_NET *14 0.00213951
*CONN
*P dac_code[6] O
*I *485:X O *D sg13g2_buf_1
*CAP
1 dac_code[6] 0.0004583
2 *485:X 0.000134545
3 *14:18 0.000717612
4 *14:10 0.000393857
5 dac_code[6] dac_code[7] 0
6 dac_code[6] done 0
7 dac_code[6] *31:14 0
8 *14:10 done 4.71556e-05
9 *14:10 *175:12 7.90308e-05
10 *14:18 done 0
11 *14:18 result[5] 0
12 *14:18 *31:14 0.000175951
13 *14:18 *34:9 0
14 *14:18 *169:12 0
15 *14:18 *191:28 0
16 busy dac_code[6] 0
17 dac_code[5] dac_code[6] 0.000133058
*RES
1 *485:X *14:10 41.5038 
2 *14:10 *14:18 42.2763 
3 *14:18 dac_code[6] 24.2951 
*END

*D_NET *15 0.00491508
*CONN
*P dac_code[7] O
*I *486:X O *D sg13g2_buf_1
*CAP
1 dac_code[7] 0.00027187
2 *486:X 9.79727e-05
3 *15:16 0.00215588
4 *15:12 0.00198198
5 dac_code[7] *34:9 0
6 *15:12 *385:B1 7.06795e-05
7 *15:12 *404:B1 0
8 *15:12 *163:39 0
9 *15:16 *34:15 0
10 *15:16 *144:37 0.000150131
11 *15:16 *144:47 0.000186565
12 busy dac_code[7] 0
13 dac_code[6] dac_code[7] 0
14 *3:12 *15:16 0
*RES
1 *486:X *15:12 40.9734 
2 *15:12 *15:16 41.0841 
3 *15:16 dac_code[7] 42.2763 
*END

*D_NET *16 0.00551651
*CONN
*P dac_code_n[0] O
*I *487:X O *D sg13g2_buf_1
*CAP
1 dac_code_n[0] 0.000637971
2 *487:X 0.00114874
3 *16:8 0.00178671
4 dac_code_n[0] dac_code_n[1] 0.000554906
5 dac_code_n[0] hold 0
6 dac_code_n[0] *18:8 0
7 dac_code_n[0] *138:10 0.000451189
8 *16:8 *488:A 0.000403586
9 *16:8 *17:10 0
10 *16:8 *168:12 0.000533397
11 *16:8 *169:12 0
12 *16:8 *170:16 0
*RES
1 *487:X *16:8 30.6193 
2 *16:8 dac_code_n[0] 46.9113 
*END

*D_NET *17 0.00577882
*CONN
*P dac_code_n[1] O
*I *488:X O *D sg13g2_buf_1
*CAP
1 dac_code_n[1] 0.000641365
2 *488:X 0.00107094
3 *17:10 0.0017123
4 dac_code_n[1] dac_code_n[2] 0
5 *17:10 *421:A 0.000214465
6 *17:10 *42:18 0
7 *17:10 *154:10 0.000307057
8 *17:10 *170:16 0.00127779
9 dac_code_n[0] dac_code_n[1] 0.000554906
10 *16:8 *17:10 0
*RES
1 *488:X *17:10 30.9386 
2 *17:10 dac_code_n[1] 46.695 
*END

*D_NET *18 0.00273577
*CONN
*P dac_code_n[2] O
*I *489:X O *D sg13g2_buf_1
*CAP
1 dac_code_n[2] 0.000498023
2 *489:X 0.000207816
3 *18:8 0.000705839
4 dac_code_n[2] dac_code_n[3] 0
5 dac_code_n[2] dac_code_n[5] 0
6 dac_code_n[2] *422:B1 0
7 *18:8 *138:10 0.000504026
8 *18:8 *169:12 0.000820067
9 dac_code_n[0] *18:8 0
10 dac_code_n[1] dac_code_n[2] 0
*RES
1 *489:X *18:8 43.811 
2 *18:8 dac_code_n[2] 24.2745 
*END

*D_NET *19 0.00643088
*CONN
*P dac_code_n[3] O
*I *490:X O *D sg13g2_buf_1
*CAP
1 dac_code_n[3] 0.000427615
2 *490:X 0.0006425
3 *19:14 0.00192237
4 *19:10 0.00213726
5 dac_code_n[3] dac_code_n[4] 0
6 *19:10 *390:A 0
7 *19:10 *42:10 0.000287672
8 *19:10 *169:12 0
9 *19:10 *170:16 0
10 *19:14 *20:12 0
11 *19:14 *197:70 0.00070446
12 *19:14 *198:79 0.000309001
13 *19:14 *204:22 0
14 dac_code_n[2] dac_code_n[3] 0
*RES
1 *490:X *19:10 45.9534 
2 *19:10 *19:14 35.0277 
3 *19:14 dac_code_n[3] 43.6256 
*END

*D_NET *20 0.00578315
*CONN
*P dac_code_n[4] O
*I *491:X O *D sg13g2_buf_1
*CAP
1 dac_code_n[4] 0.000427615
2 *491:X 0.000407969
3 *20:12 0.00204164
4 *20:8 0.00202199
5 dac_code_n[4] dac_code_n[5] 0
6 *20:8 *336:A 0
7 *20:8 *390:A 0
8 *20:8 *42:10 0
9 *20:8 *144:58 0
10 *20:8 *187:89 0.000179892
11 *20:8 *198:67 0
12 *20:8 *204:18 0
13 *20:12 *152:17 0
14 *20:12 *197:70 0.00070405
15 *20:12 *204:22 0
16 dac_code_n[3] dac_code_n[4] 0
17 *19:14 *20:12 0
*RES
1 *491:X *20:8 44.0582 
2 *20:8 *20:12 36.3255 
3 *20:12 dac_code_n[4] 43.6256 
*END

*D_NET *21 0.00106766
*CONN
*P dac_code_n[5] O
*I *492:X O *D sg13g2_buf_1
*CAP
1 dac_code_n[5] 0.00053383
2 *492:X 0.00053383
3 dac_code_n[5] dac_code_n[6] 0
4 dac_code_n[5] *492:A 0
5 dac_code_n[2] dac_code_n[5] 0
6 dac_code_n[4] dac_code_n[5] 0
*RES
1 *492:X dac_code_n[5] 24.6247 
*END

*D_NET *22 0.00138219
*CONN
*P dac_code_n[6] O
*I *493:X O *D sg13g2_buf_1
*CAP
1 dac_code_n[6] 0.000502071
2 *493:X 7.17039e-05
3 *22:8 0.000573775
4 dac_code_n[6] dac_code_n[7] 0
5 *22:8 *169:12 0.00023464
6 dac_code_n[5] dac_code_n[6] 0
*RES
1 *493:X *22:8 41.0918 
2 *22:8 dac_code_n[6] 24.2745 
*END

*D_NET *23 0.00176332
*CONN
*P dac_code_n[7] O
*I *494:X O *D sg13g2_buf_1
*CAP
1 dac_code_n[7] 0.00078565
2 *494:X 0.00078565
3 dac_code_n[7] *163:76 0.000176562
4 dac_code[0] dac_code_n[7] 1.54556e-05
5 dac_code_n[6] dac_code_n[7] 0
*RES
1 *494:X dac_code_n[7] 27.0246 
*END

*D_NET *24 0.00360779
*CONN
*P done O
*I *495:X O *D sg13g2_buf_1
*CAP
1 done 0.00160467
2 *495:X 0.00160467
3 done result[6] 0
4 done result[7] 1.52636e-05
5 done *341:B1 0
6 done *341:A1 0
7 done *446:D 0
8 done *495:A 0.000175867
9 done *31:14 0
10 done *175:12 0
11 done *179:16 0
12 done *197:56 4.77425e-05
13 done *197:62 0.000112426
14 busy done 0
15 dac_code[6] done 0
16 *14:10 done 4.71556e-05
17 *14:18 done 0
*RES
1 *495:X done 35.3676 
*END

*D_NET *25 0.00474134
*CONN
*P hold O
*I *496:X O *D sg13g2_buf_1
*CAP
1 hold 0.00110205
2 *496:X 0.000398211
3 *25:12 0.00150026
4 hold *422:A1 0.000112426
5 hold *442:CLK 0.000566174
6 hold *469:A 0
7 hold *189:10 0
8 hold *191:8 8.00842e-05
9 *25:12 *442:CLK 4.77425e-05
10 *25:12 *469:A 0.000499853
11 *25:12 *496:A 3.23529e-05
12 *25:12 *154:10 5.30319e-05
13 *25:12 *154:12 7.51285e-05
14 *25:12 *154:59 0.000274028
15 *25:12 *154:65 0
16 dac_code_n[0] hold 0
*RES
1 *496:X *25:12 44.5114 
2 *25:12 hold 30.5472 
*END

*D_NET *26 0.00610993
*CONN
*P result[0] O
*I *497:X O *D sg13g2_buf_1
*CAP
1 result[0] 0.00115632
2 *497:X 3.94675e-05
3 *26:14 0.00210874
4 *26:8 0.000991892
5 result[0] result[1] 0
6 result[0] result[2] 0
7 result[0] result[3] 0
8 result[0] *455:CLK 0
9 result[0] *509:A 0.00024127
10 result[0] *32:26 0
11 result[0] *36:9 0
12 result[0] *167:22 0.00037185
13 *26:8 *186:20 7.30101e-05
14 *26:14 *28:12 0
15 *26:14 *36:15 0
16 *26:14 *128:14 0.000310958
17 *26:14 *177:37 0
18 *26:14 *197:12 0
19 *26:14 *206:59 0.000736716
20 *10:14 result[0] 7.9706e-05
*RES
1 *497:X *26:8 40.3502 
2 *26:8 *26:14 49.8365 
3 *26:14 result[0] 30.8918 
*END

*D_NET *27 0.00665874
*CONN
*P result[1] O
*I *498:X O *D sg13g2_buf_1
*CAP
1 result[1] 0.000403887
2 *498:X 0
3 *27:10 0.00160848
4 *27:6 0.00120459
5 result[1] result[2] 0
6 result[1] *34:9 0.000285453
7 *27:10 *36:15 0.00218631
8 *27:10 *40:32 0.000970013
9 *27:10 *136:12 0
10 result[0] result[1] 0
*RES
1 *498:X *27:6 40 
2 *27:6 *27:10 35.4603 
3 *27:10 result[1] 43.8831 
*END

*D_NET *28 0.00442659
*CONN
*P result[2] O
*I *499:X O *D sg13g2_buf_1
*CAP
1 result[2] 0.000468043
2 *499:X 0.000106543
3 *28:12 0.00209594
4 *28:8 0.00173444
5 result[2] result[3] 0
6 *28:8 *101:23 0
7 *28:8 *128:8 2.16263e-05
8 *28:8 *187:74 0
9 *28:8 *198:50 0
10 *28:12 *29:14 0
11 *28:12 *36:15 0
12 *28:12 *153:65 0
13 *28:12 *177:37 0
14 *28:12 *197:12 0
15 result[0] result[2] 0
16 result[1] result[2] 0
17 *26:14 *28:12 0
*RES
1 *499:X *28:8 40.8446 
2 *28:8 *28:12 35.8929 
3 *28:12 result[2] 44.0582 
*END

*D_NET *29 0.00585323
*CONN
*P result[3] O
*I *500:X O *D sg13g2_buf_1
*CAP
1 result[3] 0.000713927
2 *500:X 0.000637749
3 *29:14 0.00162
4 *29:8 0.00154382
5 result[3] result[4] 0
6 result[3] *197:38 0.000241505
7 *29:8 *415:A 0
8 *29:8 *501:A 0
9 *29:8 *503:A 0
10 *29:8 *65:10 0
11 *29:8 *135:8 0
12 *29:8 *177:10 0
13 *29:8 *185:30 0
14 *29:8 *203:16 0
15 *29:14 *33:10 0
16 *29:14 *197:12 3.25057e-05
17 *29:14 *197:14 0.000361802
18 *29:14 *197:16 0.000294159
19 *29:14 *197:18 0.000261921
20 *29:14 *197:28 0.000145836
21 result[0] result[3] 0
22 result[2] result[3] 0
23 *28:12 *29:14 0
*RES
1 *500:X *29:8 44.7998 
2 *29:8 *29:14 48.9713 
3 *29:14 result[3] 26.2212 
*END

*D_NET *30 0.00616229
*CONN
*P result[4] O
*I *501:X O *D sg13g2_buf_1
*CAP
1 result[4] 0.00100064
2 *501:X 0.000872254
3 *30:18 0.00187289
4 result[4] result[5] 0
5 result[4] result[6] 0.000432592
6 result[4] *40:50 0.000704853
7 result[4] *66:10 0.000861217
8 result[4] *197:38 0
9 *30:18 *338:B 0
10 *30:18 *339:A 0
11 *30:18 *40:40 0
12 *30:18 *66:10 0.000177334
13 *30:18 *78:10 0
14 *30:18 *137:10 0
15 *30:18 *137:18 0.000112689
16 *30:18 *153:27 0
17 *30:18 *185:30 1.54008e-05
18 *30:18 *188:54 0
19 *30:18 *189:57 0
20 *30:18 *206:20 0
21 *30:18 *206:35 0.000112426
22 result[3] result[4] 0
*RES
1 *501:X *30:18 48.7447 
2 *30:18 result[4] 31.1755 
*END

*D_NET *31 0.00647594
*CONN
*P result[5] O
*I *502:X O *D sg13g2_buf_1
*CAP
1 result[5] 0.000639047
2 *502:X 0.00126934
3 *31:14 0.00190839
4 result[5] result[6] 0
5 result[5] *34:9 0
6 *31:14 *435:D 0.000208214
7 *31:14 *495:A 0
8 *31:14 *161:26 7.97219e-05
9 *31:14 *163:64 0
10 *31:14 *163:76 0.000143549
11 *31:14 *175:12 0.000863709
12 *31:14 *183:18 0.00110818
13 *31:14 *191:28 7.98406e-05
14 dac_code[5] *31:14 0
15 dac_code[6] *31:14 0
16 done *31:14 0
17 result[4] result[5] 0
18 *14:18 result[5] 0
19 *14:18 *31:14 0.000175951
*RES
1 *502:X *31:14 34.0183 
2 *31:14 result[5] 45.2736 
*END

*D_NET *32 0.00514533
*CONN
*P result[6] O
*I *503:X O *D sg13g2_buf_1
*CAP
1 result[6] 0.000914886
2 *503:X 0.000996063
3 *32:26 0.00191095
4 result[6] result[7] 0
5 result[6] *40:50 0.000335111
6 result[6] *180:16 0
7 *32:26 *341:B1 0
8 *32:26 *428:A1 0.0001448
9 *32:26 *445:D 0.000122685
10 *32:26 *455:CLK 0.000177109
11 *32:26 *509:A 4.78853e-05
12 *32:26 *47:10 1.54285e-05
13 *32:26 *141:10 4.78195e-05
14 *32:26 *153:18 0
15 *32:26 *167:22 0
16 *32:26 *179:16 0
17 *32:26 *197:28 0
18 *32:26 *197:62 0
19 done result[6] 0
20 result[0] *32:26 0
21 result[4] result[6] 0.000432592
22 result[5] result[6] 0
*RES
1 *503:X *32:26 30.4339 
2 *32:26 result[6] 48.9713 
*END

*D_NET *33 0.00454782
*CONN
*P result[7] O
*I *504:X O *D sg13g2_buf_1
*CAP
1 result[7] 0.000483291
2 *504:X 0
3 *33:10 0.00152569
4 *33:6 0.0010424
5 result[7] *191:28 0
6 *33:10 *164:16 0.00148118
7 *33:10 *197:16 0
8 *33:10 *197:18 0
9 done result[7] 1.52636e-05
10 result[6] result[7] 0
11 *29:14 *33:10 0
*RES
1 *504:X *33:6 40 
2 *33:6 *33:10 32.4321 
3 *33:10 result[7] 43.9758 
*END

*D_NET *34 0.00735882
*CONN
*P rst_n I
*I *480:A I *D sg13g2_buf_1
*CAP
1 rst_n 0.00109819
2 *480:A 0
3 *34:27 0.00107094
4 *34:15 0.00148828
5 *34:9 0.00151553
6 *34:9 *36:9 0
7 *34:9 *169:12 0
8 *34:9 *191:28 0
9 *34:27 *392:B 0
10 *34:27 *435:CLK 0.000323696
11 *34:27 *446:CLK 0
12 *34:27 *494:A 0
13 *34:27 *44:29 1.12102e-05
14 *34:27 *154:18 0.000273699
15 *34:27 *161:26 0
16 *34:27 *162:36 0
17 *34:27 *163:20 4.76661e-05
18 *34:27 *163:64 0.000320376
19 *34:27 *181:16 0
20 *34:27 *184:10 0.000241957
21 dac_code[1] *34:27 0.000329291
22 dac_code[7] *34:9 0
23 result[1] *34:9 0.000285453
24 result[5] *34:9 0
25 *10:20 *34:15 0
26 *11:16 *34:9 0
27 *11:16 *34:15 0.000352533
28 *14:18 *34:9 0
29 *15:16 *34:15 0
*RES
1 rst_n *34:9 30.2634 
2 *34:9 *34:15 44.429 
3 *34:15 *34:27 31.7008 
4 *34:27 *480:A 20 
*END

*D_NET *35 0.000728425
*CONN
*P sample O
*I *505:X O *D sg13g2_buf_1
*CAP
1 sample 0.000308371
2 *505:X 0.000308371
3 sample *188:30 0.000111683
4 sample *203:12 0
*RES
1 *505:X sample 43.6668 
*END

*D_NET *36 0.00738939
*CONN
*P start I
*I *481:A I *D sg13g2_buf_1
*CAP
1 start 0.000415791
2 *481:A 8.55825e-05
3 *36:15 0.00162832
4 *36:9 0.00195853
5 *481:A *416:A1 0
6 *481:A *198:35 0
7 *36:15 *439:RESET_B 0
8 *36:15 *40:32 0
9 *36:15 *153:65 0.000508694
10 *36:15 *186:20 0
11 *36:15 *206:59 0.000606159
12 result[0] *36:9 0
13 *26:14 *36:15 0
14 *27:10 *36:15 0.00218631
15 *28:12 *36:15 0
16 *34:9 *36:9 0
*RES
1 start *36:9 43.6256 
2 *36:9 *36:15 37.1701 
3 *36:15 *481:A 40.7519 
*END

*D_NET *37 0.00120173
*CONN
*I *455:D I *D sg13g2_dfrbpq_1
*I *335:Y O *D sg13g2_inv_1
*CAP
1 *455:D 0
2 *335:Y 0.000536816
3 *37:10 0.000536816
4 *37:10 *338:B 9.72993e-05
5 *37:10 *180:16 0
6 *37:10 *188:60 1.54008e-05
7 *37:10 *191:28 1.54008e-05
8 *6:11 *37:10 0
*RES
1 *335:Y *37:10 44.9028 
2 *37:10 *455:D 40 
*END

*D_NET *38 0.00171857
*CONN
*I *375:B1 I *D sg13g2_a21o_1
*I *456:D I *D sg13g2_dfrbpq_1
*I *327:Y O *D sg13g2_inv_1
*CAP
1 *375:B1 0.00039687
2 *456:D 0
3 *327:Y 9.06037e-05
4 *38:10 0.00039687
5 *38:8 9.06037e-05
6 *375:B1 *375:A1 0.00020973
7 *375:B1 *456:RESET_B 0
8 *375:B1 *477:A 0.000533897
9 *375:B1 *155:42 0
10 *375:B1 *155:46 0
11 *38:8 *145:8 0
*RES
1 *327:Y *38:8 40.8446 
2 *38:8 *38:10 20 
3 *38:10 *456:D 20 
4 *38:10 *375:B1 24.5938 
*END

*D_NET *39 0.00260859
*CONN
*I *313:A I *D sg13g2_inv_1
*I *375:A1 I *D sg13g2_a21o_1
*I *430:Q O *D sg13g2_dfrbpq_1
*CAP
1 *313:A 0.000169962
2 *375:A1 0.000446101
3 *430:Q 0
4 *39:6 0.000616064
5 *313:A *354:A 0
6 *313:A *374:A2 0.000266609
7 *313:A *88:33 0.0001289
8 *313:A *176:58 0.000128439
9 *313:A *204:10 1.54008e-05
10 *375:A1 *374:A2 0.00061038
11 *375:A1 *375:A2 1.70012e-05
12 *375:A1 *103:8 0
13 *375:A1 *147:8 0
14 *375:A1 *155:46 0
15 *375:A1 *199:45 0
16 *375:B1 *375:A1 0.00020973
*RES
1 *430:Q *39:6 40 
2 *39:6 *375:A1 45.459 
3 *39:6 *313:A 42.369 
*END

*D_NET *40 0.00904317
*CONN
*I *377:A I *D sg13g2_or2_1
*I *376:A I *D sg13g2_nand2_1
*I *418:A1 I *D sg13g2_o21ai_1
*I *312:A I *D sg13g2_inv_1
*I *431:Q O *D sg13g2_dfrbpq_1
*CAP
1 *377:A 0
2 *376:A 0
3 *418:A1 0
4 *312:A 0
5 *431:Q 0.000337909
6 *40:50 0.000564722
7 *40:40 0.000936362
8 *40:32 0.00139522
9 *40:26 0.00125694
10 *40:20 0.000505828
11 *40:12 0.000397585
12 *40:8 0.000463024
13 *40:8 *374:A1 0
14 *40:8 *74:10 0
15 *40:8 *106:8 0
16 *40:8 *107:12 0
17 *40:12 *101:6 0.000209637
18 *40:12 *187:45 0
19 *40:20 *376:B 0
20 *40:20 *101:6 0
21 *40:20 *101:23 0
22 *40:20 *104:10 4.73078e-05
23 *40:20 *187:51 0.000290552
24 *40:26 *432:CLK 0
25 *40:26 *101:23 0
26 *40:26 *187:51 0.000371103
27 *40:26 *193:10 4.79124e-05
28 *40:32 *41:16 0
29 *40:32 *78:10 0
30 *40:32 *136:12 0
31 *40:32 *188:14 0
32 *40:32 *206:59 0
33 *40:40 *510:A 0
34 *40:40 *136:20 1.54008e-05
35 *40:40 *167:22 0
36 *40:40 *206:20 0
37 *40:50 *339:A 0
38 *40:50 *418:A2 7.19987e-05
39 *40:50 *66:10 0
40 *40:50 *167:22 0.000121694
41 *40:50 *180:16 0
42 result[4] *40:50 0.000704853
43 result[6] *40:50 0.000335111
44 *27:10 *40:32 0.000970013
45 *30:18 *40:40 0
46 *36:15 *40:32 0
*RES
1 *431:Q *40:8 43.0694 
2 *40:8 *40:12 21.4008 
3 *40:12 *40:20 3.0694 
4 *40:20 *40:26 42.4823 
5 *40:26 *40:32 30.8665 
6 *40:32 *40:40 23.58 
7 *40:40 *40:50 46.6744 
8 *40:50 *312:A 20 
9 *40:40 *418:A1 20 
10 *40:20 *376:A 20 
11 *40:12 *377:A 20 
*END

*D_NET *41 0.00561148
*CONN
*I *381:B1 I *D sg13g2_a21oi_1
*I *311:A I *D sg13g2_inv_1
*I *420:A1 I *D sg13g2_o21ai_1
*I *432:Q O *D sg13g2_dfrbpq_1
*CAP
1 *381:B1 0.000690378
2 *311:A 0.000249614
3 *420:A1 6.05282e-05
4 *432:Q 0.000489446
5 *41:18 0.000310142
6 *41:16 0.000976896
7 *41:12 0.00215672
8 *311:A *503:A 0
9 *311:A *153:27 0.000269259
10 *311:A *188:14 0.000231338
11 *311:A *189:57 0
12 *311:A *206:12 0.000177164
13 *381:B1 *381:A2 0
14 *381:B1 *385:A2 0
15 *381:B1 *432:RESET_B 0
16 *381:B1 *73:43 0
17 *381:B1 *144:33 0
18 *381:B1 *179:28 0
19 *381:B1 *197:8 0
20 *420:A1 *137:18 0
21 *420:A1 *153:27 0
22 *41:12 *144:10 0
23 *41:12 *144:33 0
24 *41:12 *179:28 0
25 *41:12 *188:30 0
26 *41:12 *203:12 0
27 *41:16 *136:12 0
28 *41:16 *178:20 0
29 *41:16 *193:22 0
30 *41:16 *206:59 0
31 *40:32 *41:16 0
*RES
1 *432:Q *41:12 44.2951 
2 *41:12 *41:16 30.4854 
3 *41:16 *41:18 20 
4 *41:18 *420:A1 40.5356 
5 *41:18 *311:A 42.8917 
6 *41:12 *381:B1 45.5208 
*END

*D_NET *42 0.0110506
*CONN
*I *390:A I *D sg13g2_nand2_1
*I *388:A0 I *D sg13g2_mux2_1
*I *422:A1 I *D sg13g2_o21ai_1
*I *310:A I *D sg13g2_inv_1
*I *433:Q O *D sg13g2_dfrbpq_1
*CAP
1 *390:A 0.000606973
2 *388:A0 0.000343146
3 *422:A1 6.55615e-05
4 *310:A 0.000190507
5 *433:Q 0.000198184
6 *42:18 0.00165442
7 *42:12 0.0017415
8 *42:10 0.000805157
9 *310:A *492:A 0
10 *310:A *68:10 0
11 *310:A *161:12 1.54446e-05
12 *310:A *170:12 0.000287256
13 *388:A0 *309:A 0
14 *388:A0 *389:A2 0.000242236
15 *388:A0 *144:62 0.000112454
16 *388:A0 *170:16 0
17 *388:A0 *191:90 0.000161631
18 *390:A *392:B 1.54008e-05
19 *390:A *116:8 0.000543815
20 *390:A *198:67 0.000596847
21 *422:A1 *422:A2 4.77425e-05
22 *422:A1 *189:10 8.00842e-05
23 *42:10 *309:A 8.01938e-05
24 *42:10 *169:12 8.01938e-05
25 *42:18 *421:A 0.000111876
26 *42:18 *154:10 0.000307057
27 *42:18 *170:12 0.000340704
28 *42:18 *170:16 0
29 *42:18 *191:90 0.00202217
30 hold *422:A1 0.000112426
31 *17:10 *42:18 0
32 *19:10 *390:A 0
33 *19:10 *42:10 0.000287672
34 *20:8 *390:A 0
35 *20:8 *42:10 0
*RES
1 *433:Q *42:10 42.6162 
2 *42:10 *42:12 20 
3 *42:12 *42:18 35.0998 
4 *42:18 *310:A 42.0909 
5 *42:18 *422:A1 40.7519 
6 *42:12 *388:A0 23.7801 
7 *42:10 *390:A 46.8907 
*END

*D_NET *43 0.00400581
*CONN
*I *309:A I *D sg13g2_inv_1
*I *424:A1 I *D sg13g2_o21ai_1
*I *392:A I *D sg13g2_nand2_1
*I *434:Q O *D sg13g2_dfrbpq_1
*CAP
1 *309:A 0.00062264
2 *424:A1 2.41961e-05
3 *392:A 0.000362602
4 *434:Q 0.00125319
5 *43:10 0.00101735
6 *309:A *388:S 0
7 *309:A *169:12 0
8 *392:A *392:B 0
9 *392:A *434:D 0
10 *392:A *44:29 0
11 *392:A *139:12 0.000389473
12 *392:A *198:79 0
13 *43:10 *487:A 7.97665e-05
14 *43:10 *166:10 0
15 *43:10 *169:12 0.0001764
16 *43:10 *181:8 0
17 *43:10 *189:105 0
18 *388:A0 *309:A 0
19 *42:10 *309:A 8.01938e-05
*RES
1 *434:Q *43:10 45.7371 
2 *43:10 *392:A 43.8908 
3 *43:10 *424:A1 40.3193 
4 *434:Q *309:A 46.4581 
*END

*D_NET *44 0.00289741
*CONN
*I *308:A I *D sg13g2_inv_1
*I *426:A1 I *D sg13g2_o21ai_1
*I *435:Q O *D sg13g2_dfrbpq_1
*CAP
1 *308:A 0
2 *426:A1 0.000150748
3 *435:Q 0.000174791
4 *44:29 0.000485772
5 *44:10 0.00063652
6 *44:8 0.000174791
7 *426:A1 *426:A2 0.000241907
8 *426:A1 *185:16 0.000274249
9 *44:8 *139:12 0
10 *44:8 *190:16 7.30101e-05
11 *44:8 *190:29 0.000338564
12 *44:29 *392:B 1.54008e-05
13 *44:29 *69:10 0
14 *44:29 *139:12 0
15 *44:29 *163:64 0
16 *44:29 *185:16 3.23417e-05
17 *44:29 *203:16 0.000288103
18 *392:A *44:29 0
19 *3:8 *44:29 0
20 *34:27 *44:29 1.12102e-05
*RES
1 *435:Q *44:8 41.8334 
2 *44:8 *44:10 20 
3 *44:10 *426:A1 21.8334 
4 *44:10 *44:29 44.7818 
5 *44:29 *308:A 20 
*END

*D_NET *45 0.00515299
*CONN
*I *307:A I *D sg13g2_inv_1
*I *405:A I *D sg13g2_nand2_1
*I *428:A1 I *D sg13g2_o21ai_1
*I *436:Q O *D sg13g2_dfrbpq_1
*CAP
1 *307:A 0
2 *405:A 0.000543995
3 *428:A1 0.000525048
4 *436:Q 0.000561096
5 *45:20 0.00118996
6 *45:16 0.000197421
7 *45:12 0.000637601
8 *405:A *410:B1 0
9 *405:A *432:RESET_B 0
10 *405:A *101:31 0.000241149
11 *405:A *153:34 0
12 *405:A *179:16 0
13 *405:A *179:28 0
14 *405:A *198:35 3.98616e-05
15 *428:A1 *428:A2 0.000241907
16 *428:A1 *445:D 0
17 *428:A1 *503:A 1.54008e-05
18 *428:A1 *153:27 0
19 *428:A1 *153:34 0
20 *428:A1 *177:10 0
21 *428:A1 *179:16 0
22 *428:A1 *203:16 0.000231532
23 *428:A1 *206:51 0
24 *45:12 *392:B 0
25 *45:12 *408:A1 1.54008e-05
26 *45:12 *163:20 0
27 *45:12 *164:12 0
28 *45:12 *182:8 0.000230822
29 *45:12 *203:16 0
30 *45:16 *435:D 0
31 *45:16 *164:12 0
32 *45:16 *179:16 0
33 *45:20 *177:10 0
34 *45:20 *203:16 0.000336992
35 *32:26 *428:A1 0.0001448
*RES
1 *436:Q *45:12 45.3766 
2 *45:12 *45:16 20.7519 
3 *45:16 *45:20 21.5862 
4 *45:20 *428:A1 44.7142 
5 *45:20 *405:A 45.7371 
6 *45:16 *307:A 20 
*END

*D_NET *46 0.0122808
*CONN
*I *412:A I *D sg13g2_nor2_1
*I *306:A I *D sg13g2_inv_1
*I *341:A1 I *D sg13g2_o21ai_1
*I *437:Q O *D sg13g2_dfrbpq_1
*CAP
1 *412:A 0.000230815
2 *306:A 0
3 *341:A1 0.000283752
4 *437:Q 0.000508325
5 *46:45 0.000599153
6 *46:26 0.00103914
7 *46:20 0.00222157
8 *46:18 0.00111085
9 *46:10 0.000474634
10 *46:8 0.000508325
11 *341:A1 *341:B1 0
12 *341:A1 *341:A2 1.54008e-05
13 *341:A1 *446:D 7.9135e-05
14 *341:A1 *47:10 0
15 *412:A *412:B 0
16 *412:A *413:C1 0
17 *412:A *437:RESET_B 0.00012929
18 *412:A *199:37 0.000112558
19 *46:8 *411:A2 0
20 *46:8 *56:8 0
21 *46:8 *102:73 0.000232418
22 *46:8 *187:28 0
23 *46:8 *187:41 0
24 *46:8 *199:28 0
25 *46:18 *373:A 0
26 *46:18 *411:A2 7.34081e-05
27 *46:18 *413:C1 0
28 *46:18 *437:RESET_B 0.000112651
29 *46:18 *157:40 0.000242203
30 *46:18 *187:28 0
31 *46:20 *73:51 0.000389573
32 *46:20 *73:68 0.0002696
33 *46:20 *186:14 0
34 *46:20 *197:12 0.000554828
35 *46:26 *197:12 0.000803532
36 *46:26 *197:14 0.000377011
37 *46:26 *197:16 0.000244106
38 *46:45 *398:A1 4.77425e-05
39 *46:45 *61:8 0.000286392
40 *46:45 *73:51 0.00012847
41 *46:45 *131:8 0.00108513
42 *46:45 *187:74 4.77425e-05
43 *46:45 *187:89 7.30101e-05
44 *46:45 *198:50 0
45 *46:45 *198:67 0
46 done *341:A1 0
*RES
1 *437:Q *46:8 45.5414 
2 *46:8 *46:10 20 
3 *46:10 *46:18 42.6162 
4 *46:18 *46:20 10.4854 
5 *46:20 *46:26 49.1876 
6 *46:26 *341:A1 22.4823 
7 *46:20 *46:45 47.9825 
8 *46:45 *306:A 20 
9 *46:10 *412:A 22.4617 
*END

*D_NET *47 0.00126987
*CONN
*I *446:D I *D sg13g2_dfrbpq_1
*I *341:Y O *D sg13g2_o21ai_1
*CAP
1 *446:D 0.000199455
2 *341:Y 0.000291753
3 *47:10 0.000491208
4 *47:10 *341:B1 0.000192886
5 *47:10 *341:A2 0
6 *47:10 *153:8 0
7 done *446:D 0
8 *341:A1 *446:D 7.9135e-05
9 *341:A1 *47:10 0
10 *9:10 *47:10 0
11 *32:26 *47:10 1.54285e-05
*RES
1 *341:Y *47:10 42.4926 
2 *47:10 *446:D 42.06 
*END

*D_NET *48 0.000602402
*CONN
*I *447:D I *D sg13g2_dfrbpq_1
*I *346:X O *D sg13g2_and3_1
*CAP
1 *447:D 0.000301201
2 *346:X 0.000301201
3 *447:D *345:A1 0
4 *447:D *346:C 0
5 *447:D *200:54 0
6 *447:D *210:69 0
*RES
1 *346:X *447:D 43.2033 
*END

*D_NET *49 0.000890254
*CONN
*I *448:D I *D sg13g2_dfrbpq_1
*I *352:Y O *D sg13g2_nand2_1
*CAP
1 *448:D 0
2 *352:Y 0.000168414
3 *49:8 0.000168414
4 *49:8 *200:37 0.000553426
*RES
1 *352:Y *49:8 42.575 
2 *49:8 *448:D 40 
*END

*D_NET *50 0.01029
*CONN
*I *361:B I *D sg13g2_and2_1
*I *385:B1 I *D sg13g2_o21ai_1
*I *403:B1 I *D sg13g2_o21ai_1
*I *449:D I *D sg13g2_dfrbpq_1
*I *356:C I *D sg13g2_nor3_1
*I *354:Y O *D sg13g2_inv_1
*CAP
1 *361:B 0
2 *385:B1 0.000407051
3 *403:B1 2.86806e-05
4 *449:D 0.000440626
5 *356:C 0
6 *354:Y 0
7 *50:60 0.000625709
8 *50:52 0.0012896
9 *50:48 0.00121668
10 *50:44 0.000435785
11 *50:16 0.00113159
12 *50:6 0.00100969
13 *385:B1 *385:A2 0.000112392
14 *385:B1 *399:A 0
15 *385:B1 *102:49 0.000179006
16 *385:B1 *144:33 0
17 *403:B1 *403:A2 4.77425e-05
18 *403:B1 *404:A2 0
19 *403:B1 *127:10 1.54008e-05
20 *449:D *81:10 0
21 *449:D *83:21 0.000232563
22 *449:D *90:8 0
23 *449:D *207:10 0
24 *449:D *207:20 0.000287256
25 *449:D *209:63 0
26 *449:D *209:71 0
27 *449:D *211:8 0.000129163
28 *449:D *211:16 0
29 *50:16 *199:45 0.000128777
30 *50:16 *210:33 0.000355542
31 *50:44 *54:10 0.00023464
32 *50:44 *143:14 0.000113206
33 *50:44 *187:14 0.00023335
34 *50:44 *199:45 0.000371867
35 *50:44 *209:29 0
36 *50:52 *362:A0 0.000307018
37 *50:52 *362:S 0
38 *50:52 *393:B_N 4.77425e-05
39 *50:52 *394:B 0
40 *50:52 *401:B1 0
41 *50:52 *407:A_N 0
42 *50:52 *76:19 0
43 *50:52 *93:8 0
44 *50:52 *98:6 0
45 *50:52 *98:14 0
46 *50:52 *150:35 0
47 *50:52 *176:28 0
48 *50:60 *123:14 0
49 *50:60 *126:8 0.00028545
50 *50:60 *163:39 0.000339828
51 *50:60 *190:12 0.000212938
52 *15:12 *385:B1 7.06795e-05
*RES
1 *354:Y *50:6 40 
2 *50:6 *50:16 46.7053 
3 *50:16 *356:C 40 
4 *50:16 *449:D 44.8719 
5 *50:6 *50:44 44.5423 
6 *50:44 *50:48 20.9682 
7 *50:48 *50:52 29.9875 
8 *50:52 *50:60 42.987 
9 *50:60 *403:B1 40.3193 
10 *50:60 *385:B1 44.2539 
11 *50:48 *361:B 20 
*END

*D_NET *51 0.000743074
*CONN
*I *450:D I *D sg13g2_dfrbpq_1
*I *358:Y O *D sg13g2_o21ai_1
*CAP
1 *450:D 0.000104682
2 *358:Y 0.000178123
3 *51:8 0.000282804
4 *450:D *353:A2 0
5 *450:D *176:14 0.000177466
6 *51:8 *152:68 0
7 *51:8 *210:17 0
8 *51:8 *210:19 0
9 *51:8 *210:23 0
*RES
1 *358:Y *51:8 41.5862 
2 *51:8 *450:D 41.1845 
*END

*D_NET *52 0.000738295
*CONN
*I *451:D I *D sg13g2_dfrbpq_1
*I *360:Y O *D sg13g2_nor3_1
*CAP
1 *451:D 0.000117954
2 *360:Y 0.000251193
3 *52:8 0.000369147
4 *52:8 *200:37 0
*RES
1 *360:Y *52:8 43.0694 
2 *52:8 *451:D 41.1845 
*END

*D_NET *53 0.000190773
*CONN
*I *452:D I *D sg13g2_dfrbpq_1
*I *362:X O *D sg13g2_mux2_1
*CAP
1 *452:D 9.53864e-05
2 *362:X 9.53864e-05
3 *452:D *454:RESET_B 0
4 *452:D *176:28 0
5 *452:D *199:47 0
*RES
1 *362:X *452:D 41.133 
*END

*D_NET *54 0.00177787
*CONN
*I *453:D I *D sg13g2_dfrbpq_1
*I *367:Y O *D sg13g2_inv_1
*CAP
1 *453:D 0.000135926
2 *367:Y 0.000428426
3 *54:10 0.000564352
4 *453:D *88:6 0
5 *453:D *199:47 0
6 *54:10 *88:20 0.000128662
7 *54:10 *187:14 0
8 *54:10 *190:8 0.000285866
9 *54:10 *204:10 0
10 *50:44 *54:10 0.00023464
*RES
1 *367:Y *54:10 44.3775 
2 *54:10 *453:D 40.9682 
*END

*D_NET *55 0.000422306
*CONN
*I *454:D I *D sg13g2_dfrbpq_1
*I *370:Y O *D sg13g2_nand2_1
*CAP
1 *454:D 0.000211153
2 *370:Y 0.000211153
3 *454:D *454:RESET_B 0
4 *454:D *150:29 0
5 *454:D *176:28 0
*RES
1 *370:Y *454:D 42.2145 
*END

*D_NET *56 0.000637251
*CONN
*I *430:D I *D sg13g2_dfrbpq_1
*I *375:X O *D sg13g2_a21o_1
*CAP
1 *430:D 0.000189946
2 *375:X 0.00012868
3 *56:8 0.000318625
4 *430:D *430:RESET_B 0
5 *430:D *203:12 0
6 *56:8 *155:72 0
7 *46:8 *56:8 0
*RES
1 *375:X *56:8 41.339 
2 *56:8 *430:D 42.0497 
*END

*D_NET *57 0.000611751
*CONN
*I *431:D I *D sg13g2_dfrbpq_1
*I *380:Y O *D sg13g2_o21ai_1
*CAP
1 *431:D 0.000114486
2 *380:Y 0.00019139
3 *57:8 0.000305876
4 *431:D *182:41 0
5 *431:D *203:12 0
6 *57:8 *318:A 0
*RES
1 *380:Y *57:8 41.8334 
2 *57:8 *431:D 41.1845 
*END

*D_NET *58 0.000510393
*CONN
*I *432:D I *D sg13g2_dfrbpq_1
*I *386:Y O *D sg13g2_o21ai_1
*CAP
1 *432:D 0.000247496
2 *386:Y 0.000247496
3 *432:D *323:A 0
4 *432:D *386:B1 1.54008e-05
5 *432:D *179:28 0
*RES
1 *386:Y *432:D 42.8428 
*END

*D_NET *59 0.000521606
*CONN
*I *433:D I *D sg13g2_dfrbpq_1
*I *391:Y O *D sg13g2_o21ai_1
*CAP
1 *433:D 0.000172666
2 *391:Y 0.000172666
3 *433:D *391:B1 0.000176274
4 *433:D *398:A2 0
*RES
1 *391:Y *433:D 41.7819 
*END

*D_NET *60 0.000655205
*CONN
*I *434:D I *D sg13g2_dfrbpq_1
*I *398:Y O *D sg13g2_o21ai_1
*CAP
1 *434:D 0.000195342
2 *398:Y 6.83701e-05
3 *60:10 0.000263712
4 *434:D *392:B 0
5 *434:D *398:B1 0
6 *434:D *198:69 0
7 *434:D *198:79 0
8 *60:10 *101:31 0
9 *60:10 *116:8 0.00012778
10 *392:A *434:D 0
*RES
1 *398:Y *60:10 40.9167 
2 *60:10 *434:D 41.5371 
*END

*D_NET *61 0.00253062
*CONN
*I *435:D I *D sg13g2_dfrbpq_1
*I *404:Y O *D sg13g2_o21ai_1
*CAP
1 *435:D 0.00051732
2 *404:Y 0.000108689
3 *61:8 0.000626008
4 *435:D *504:A 0.000207636
5 *435:D *164:12 0
6 *435:D *174:10 0.000143335
7 *435:D *174:22 0
8 *435:D *179:16 0
9 *435:D *182:20 0.000433022
10 *435:D *183:18 0
11 *61:8 *198:67 0
12 *31:14 *435:D 0.000208214
13 *45:16 *435:D 0
14 *46:45 *61:8 0.000286392
*RES
1 *404:Y *61:8 41.339 
2 *61:8 *435:D 45.6444 
*END

*D_NET *62 0.00010454
*CONN
*I *436:D I *D sg13g2_dfrbpq_1
*I *410:Y O *D sg13g2_o21ai_1
*CAP
1 *436:D 5.22701e-05
2 *410:Y 5.22701e-05
*RES
1 *410:Y *436:D 40.5974 
*END

*D_NET *63 0.000349792
*CONN
*I *437:D I *D sg13g2_dfrbpq_1
*I *413:Y O *D sg13g2_a221oi_1
*CAP
1 *437:D 0.000118878
2 *413:Y 0.000118878
3 *437:D *412:B 0
4 *437:D *413:C1 0.000112036
*RES
1 *413:Y *437:D 41.3493 
*END

*D_NET *64 0.00125283
*CONN
*I *438:D I *D sg13g2_dfrbpq_1
*I *414:Y O *D sg13g2_a22oi_1
*CAP
1 *438:D 0
2 *414:Y 0.00055456
3 *64:10 0.00055456
4 *64:10 *371:B 0
5 *64:10 *414:B1 4.79014e-05
6 *64:10 *414:B2 4.79014e-05
7 *64:10 *414:A2 4.79124e-05
8 *64:10 *414:A1 0
9 *64:10 *80:14 0
10 *64:10 *84:10 0
11 *4:8 *64:10 0
*RES
1 *414:Y *64:10 44.8719 
2 *64:10 *438:D 40 
*END

*D_NET *65 0.00155148
*CONN
*I *439:D I *D sg13g2_dfrbpq_1
*I *416:Y O *D sg13g2_o21ai_1
*CAP
1 *439:D 0
2 *416:Y 0.000295178
3 *65:10 0.000295178
4 *65:10 *416:B1 0.000339327
5 *65:10 *439:RESET_B 0.000339327
6 *65:10 *203:16 0.000282467
7 *29:8 *65:10 0
*RES
1 *416:Y *65:10 43.605 
2 *65:10 *439:D 40 
*END

*D_NET *66 0.00270719
*CONN
*I *440:D I *D sg13g2_dfrbpq_1
*I *418:Y O *D sg13g2_o21ai_1
*CAP
1 *440:D 0
2 *418:Y 0.000349627
3 *66:10 0.000349627
4 *66:10 *339:A 0.000495406
5 *66:10 *205:8 0.000473974
6 result[4] *66:10 0.000861217
7 *30:18 *66:10 0.000177334
8 *40:50 *66:10 0
*RES
1 *418:Y *66:10 45.7371 
2 *66:10 *440:D 40 
*END

*D_NET *67 0.000892939
*CONN
*I *441:D I *D sg13g2_dfrbpq_1
*I *420:Y O *D sg13g2_o21ai_1
*CAP
1 *441:D 9.28834e-05
2 *420:Y 0.000176096
3 *67:8 0.00026898
4 *441:D *188:54 0.00017724
5 *67:8 *78:10 0
6 *67:8 *188:16 0
7 *6:11 *441:D 0.000177739
*RES
1 *420:Y *67:8 41.339 
2 *67:8 *441:D 41.1845 
*END

*D_NET *68 0.00135533
*CONN
*I *442:D I *D sg13g2_dfrbpq_1
*I *422:Y O *D sg13g2_o21ai_1
*CAP
1 *442:D 0
2 *422:Y 0.000473641
3 *68:10 0.000473641
4 *68:10 *422:B1 1.54008e-05
5 *68:10 *422:A2 0
6 *68:10 *161:12 0
7 *68:10 *162:32 0
8 *68:10 *168:12 0
9 *68:10 *189:10 0
10 *68:10 *204:28 0.000392644
11 *310:A *68:10 0
*RES
1 *422:Y *68:10 44.3466 
2 *68:10 *442:D 40 
*END

*D_NET *69 0.0013144
*CONN
*I *443:D I *D sg13g2_dfrbpq_1
*I *424:Y O *D sg13g2_o21ai_1
*CAP
1 *443:D 0.000134465
2 *424:Y 0.00031396
3 *69:10 0.000448424
4 *443:D *426:A2 0
5 *443:D *444:D 0
6 *443:D *198:87 0
7 *69:10 *426:A2 0
8 *69:10 *176:34 0
9 *69:10 *189:36 0.000337743
10 *69:10 *189:105 0
11 *69:10 *198:87 7.98053e-05
12 *44:29 *69:10 0
*RES
1 *424:Y *69:10 43.2033 
2 *69:10 *443:D 41.3442 
*END

*D_NET *70 0.000420481
*CONN
*I *444:D I *D sg13g2_dfrbpq_1
*I *426:Y O *D sg13g2_o21ai_1
*CAP
1 *444:D 0.000186284
2 *426:Y 0.000186284
3 *444:D *426:B1 0
4 *444:D *190:41 4.79124e-05
5 *444:D *198:87 0
6 *443:D *444:D 0
*RES
1 *426:Y *444:D 41.7819 
*END

*D_NET *71 0.000400703
*CONN
*I *445:D I *D sg13g2_dfrbpq_1
*I *428:Y O *D sg13g2_o21ai_1
*CAP
1 *445:D 0.000139009
2 *428:Y 0.000139009
3 *445:D *153:18 0
4 *428:A1 *445:D 0
5 *32:26 *445:D 0.000122685
*RES
1 *428:Y *445:D 41.6583 
*END

*D_NET *72 0.00153242
*CONN
*I *358:A1 I *D sg13g2_o21ai_1
*I *334:B I *D sg13g2_or3_1
*I *329:X O *D sg13g2_or2_1
*CAP
1 *358:A1 5.12765e-05
2 *334:B 0.000285716
3 *329:X 0.000202702
4 *72:16 0.000447593
5 *72:10 0.000313302
6 *334:B *473:A 0
7 *334:B *76:19 1.54556e-05
8 *334:B *176:18 0
9 *334:B *196:42 0
10 *358:A1 *342:C 0
11 *358:A1 *358:A2 4.77537e-05
12 *358:A1 *76:19 0
13 *72:10 *143:8 7.31628e-05
14 *72:10 *152:68 0
15 *72:10 *210:23 0
16 *72:16 *358:A2 4.77154e-05
17 *72:16 *473:A 4.77425e-05
*RES
1 *329:X *72:10 41.9055 
2 *72:10 *72:16 21.3184 
3 *72:16 *334:B 22.9355 
4 *72:16 *358:A1 20.6695 
*END

*D_NET *73 0.0124182
*CONN
*I *362:A1 I *D sg13g2_mux2_1
*I *389:B1 I *D sg13g2_a21oi_1
*I *397:B1 I *D sg13g2_a21oi_1
*I *403:A1 I *D sg13g2_o21ai_1
*I *379:B1 I *D sg13g2_a21oi_1
*I *409:B1 I *D sg13g2_a21oi_1
*I *385:A1 I *D sg13g2_o21ai_1
*I *330:Y O *D sg13g2_nand2_1
*CAP
1 *362:A1 0
2 *389:B1 0
3 *397:B1 0
4 *403:A1 2.90123e-05
5 *379:B1 0
6 *409:B1 0
7 *385:A1 0
8 *330:Y 0.000166465
9 *73:108 0.000363407
10 *73:95 0.000333445
11 *73:68 0.000586067
12 *73:51 0.000248788
13 *73:43 0.00119078
14 *73:28 0.000494121
15 *73:22 0.000421812
16 *73:16 0.000470509
17 *73:10 0.00144549
18 *73:6 0.00142601
19 *403:A1 *403:A2 1.54008e-05
20 *403:A1 *407:A_N 4.77425e-05
21 *73:6 *454:CLK 0
22 *73:6 *150:29 0.000259183
23 *73:6 *156:12 0
24 *73:10 *363:B 0
25 *73:10 *364:A 0
26 *73:10 *365:C 0
27 *73:10 *370:B 0
28 *73:10 *454:CLK 0
29 *73:10 *470:A 0.000306662
30 *73:10 *94:8 0
31 *73:10 *94:12 0
32 *73:10 *94:14 0
33 *73:10 *98:27 0
34 *73:10 *119:6 0
35 *73:10 *150:29 0.000500743
36 *73:10 *195:8 8.03692e-05
37 *73:16 *394:A 0
38 *73:16 *402:A2 6.49135e-05
39 *73:16 *119:25 0.00012816
40 *73:16 *121:8 0.000286753
41 *73:16 *144:58 0
42 *73:22 *402:A2 1.54285e-05
43 *73:22 *119:25 0
44 *73:22 *144:58 0
45 *73:22 *163:39 0.000340186
46 *73:22 *165:10 0.000421951
47 *73:22 *195:68 0
48 *73:28 *323:A 0.000230526
49 *73:28 *385:A2 1.53666e-05
50 *73:28 *404:A2 5.05102e-05
51 *73:28 *163:39 0.000495575
52 *73:28 *165:10 0.000287642
53 *73:43 *323:A 0
54 *73:43 *385:A2 3.23417e-05
55 *73:43 *404:A2 5.05102e-05
56 *73:43 *102:49 0
57 *73:43 *163:39 2.14736e-05
58 *73:43 *182:20 0
59 *73:43 *206:59 0.000128167
60 *73:51 *187:74 0
61 *73:68 *379:A1 0
62 *73:68 *101:6 0
63 *73:68 *144:33 0
64 *73:68 *171:14 0.00043849
65 *73:68 *182:41 0
66 *73:68 *198:21 0.000236521
67 *73:95 *120:10 0
68 *73:95 *151:14 0
69 *73:95 *204:14 0
70 *73:108 *366:B1 0
71 *73:108 *366:A1 0
72 *73:108 *79:47 0
73 *381:B1 *73:43 0
74 *46:20 *73:51 0.000389573
75 *46:20 *73:68 0.0002696
76 *46:45 *73:51 0.00012847
*RES
1 *330:Y *73:6 21.8334 
2 *73:6 *73:10 28.9713 
3 *73:10 *73:16 22.8634 
4 *73:16 *73:22 23.3887 
5 *73:22 *73:28 22.6471 
6 *73:28 *385:A1 20 
7 *73:28 *73:43 43.2445 
8 *73:43 *73:51 43.0797 
9 *73:51 *409:B1 20 
10 *73:43 *73:68 46.3139 
11 *73:68 *379:B1 20 
12 *73:22 *403:A1 40.3193 
13 *73:16 *397:B1 20 
14 *73:10 *73:95 43.5432 
15 *73:95 *389:B1 40 
16 *73:6 *73:108 43.811 
17 *73:108 *362:A1 20 
*END

*D_NET *74 0.00657278
*CONN
*I *378:A2 I *D sg13g2_a21oi_1
*I *377:B I *D sg13g2_or2_1
*I *374:A1 I *D sg13g2_o21ai_1
*I *331:Y O *D sg13g2_nor2_1
*CAP
1 *378:A2 0
2 *377:B 0
3 *374:A1 0.000619871
4 *331:Y 0.000489104
5 *74:33 0.000176836
6 *74:25 0.000469059
7 *74:10 0.0014012
8 *374:A1 *372:B 0
9 *374:A1 *374:A2 1.54556e-05
10 *374:A1 *431:CLK 0
11 *374:A1 *100:17 0.000598379
12 *374:A1 *101:6 1.54556e-05
13 *374:A1 *102:12 0.00028661
14 *374:A1 *102:73 0
15 *374:A1 *155:52 0
16 *74:10 *331:B 0.000207923
17 *74:10 *382:A 0
18 *74:10 *406:B 0
19 *74:10 *102:12 0.000603969
20 *74:10 *192:57 0.000207923
21 *74:10 *194:33 0
22 *74:10 *194:74 4.77425e-05
23 *74:10 *195:24 0
24 *74:25 *379:A1 0
25 *74:25 *101:6 0
26 *74:25 *157:27 1.54008e-05
27 *74:25 *157:40 0.000485629
28 *74:33 *157:23 0.000494749
29 *74:33 *157:27 4.77425e-05
30 *74:33 *171:14 0
31 *74:33 *182:41 0.000389734
32 *40:8 *374:A1 0
33 *40:8 *74:10 0
*RES
1 *331:Y *74:10 45.6135 
2 *74:10 *374:A1 46.4787 
3 *74:10 *74:25 23.3475 
4 *74:25 *74:33 42.8634 
5 *74:33 *377:B 20 
6 *74:25 *378:A2 20 
*END

*D_NET *75 0.00197959
*CONN
*I *382:C I *D sg13g2_and3_1
*I *381:A2 I *D sg13g2_a21oi_1
*I *378:B1 I *D sg13g2_a21oi_1
*I *332:Y O *D sg13g2_nor2_1
*CAP
1 *382:C 0
2 *381:A2 0.000282795
3 *378:B1 0
4 *332:Y 0.000109587
5 *75:18 0.000102067
6 *75:12 0.000516126
7 *75:8 0.000240851
8 *381:A2 *382:B 4.77425e-05
9 *381:A2 *384:A 1.54008e-05
10 *381:A2 *384:B 0
11 *381:A2 *102:26 0
12 *381:A2 *182:41 0
13 *75:8 *382:A 7.31655e-05
14 *75:8 *110:8 0
15 *75:8 *194:33 0.000212388
16 *75:12 *382:A 0.000143449
17 *75:12 *102:26 0
18 *75:12 *157:40 0
19 *75:18 *382:A 0
20 *75:18 *382:B 0.000236019
21 *381:B1 *381:A2 0
*RES
1 *332:Y *75:8 41.339 
2 *75:8 *75:12 21.4008 
3 *75:12 *75:18 41.339 
4 *75:18 *378:B1 20 
5 *75:12 *381:A2 22.6162 
6 *75:12 *382:C 20 
*END

*D_NET *76 0.00367555
*CONN
*I *342:C I *D sg13g2_nand3_1
*I *334:C I *D sg13g2_or3_1
*I *401:B1 I *D sg13g2_o21ai_1
*I *333:X O *D sg13g2_or3_1
*CAP
1 *342:C 4.72978e-05
2 *334:C 0
3 *401:B1 0.000580293
4 *333:X 3.03095e-05
5 *76:19 0.000751233
6 *76:6 0.00131454
7 *401:B1 *362:S 0
8 *401:B1 *407:A_N 1.54008e-05
9 *401:B1 *99:16 0
10 *401:B1 *124:10 0.000533503
11 *76:6 *99:16 0
12 *76:6 *124:10 0
13 *76:19 *354:A 0
14 *76:19 *362:S 0.000339683
15 *76:19 *369:A2 0
16 *76:19 *79:51 0
17 *76:19 *93:8 4.78356e-05
18 *76:19 *99:16 0
19 *76:19 *176:18 0
20 *76:19 *192:57 0
21 *334:B *76:19 1.54556e-05
22 *358:A1 *342:C 0
23 *358:A1 *76:19 0
24 *50:52 *401:B1 0
25 *50:52 *76:19 0
*RES
1 *333:X *76:6 20.3502 
2 *76:6 *401:B1 25.7268 
3 *76:6 *76:19 6.8598 
4 *76:19 *334:C 20 
5 *76:19 *342:C 20.5974 
*END

*D_NET *77 0.000545181
*CONN
*I *468:A I *D sg13g2_buf_1
*I *334:X O *D sg13g2_or3_1
*CAP
1 *468:A 0.000272591
2 *334:X 0.000272591
3 *468:A *473:A 0
4 *468:A *187:28 0
*RES
1 *334:X *468:A 42.5647 
*END

*D_NET *78 0.00263415
*CONN
*I *341:B1 I *D sg13g2_o21ai_1
*I *340:Y O *D sg13g2_nand2_1
*CAP
1 *341:B1 0.000276079
2 *340:Y 0.000661597
3 *78:10 0.000937676
4 *78:10 *153:8 0
5 *78:10 *167:26 0.000388788
6 *78:10 *188:14 0
7 *78:10 *188:16 0
8 *78:10 *188:54 0.000177125
9 *78:10 *197:101 0
10 done *341:B1 0
11 *341:A1 *341:B1 0
12 *30:18 *78:10 0
13 *32:26 *341:B1 0
14 *40:32 *78:10 0
15 *47:10 *341:B1 0.000192886
16 *67:8 *78:10 0
*RES
1 *340:Y *78:10 45.9843 
2 *78:10 *341:B1 42.5905 
*END

*D_NET *79 0.0052843
*CONN
*I *369:B1 I *D sg13g2_o21ai_1
*I *413:A1 I *D sg13g2_a221oi_1
*I *346:A I *D sg13g2_and3_1
*I *355:A I *D sg13g2_nand3_1
*I *342:Y O *D sg13g2_nand3_1
*CAP
1 *369:B1 0
2 *413:A1 0
3 *346:A 0.000413455
4 *355:A 0
5 *342:Y 0.000547781
6 *79:57 0.000304511
7 *79:51 0.000454914
8 *79:47 0.0006436
9 *79:14 0.00113909
10 *79:8 0.000780216
11 *346:A *343:C 0
12 *346:A *346:B 0.000273087
13 *346:A *352:B 0
14 *346:A *210:69 0
15 *79:8 *199:45 0.000182524
16 *79:8 *209:29 0
17 *79:14 *143:14 0
18 *79:14 *211:50 0
19 *79:47 *366:B1 0
20 *79:47 *366:A1 0
21 *79:47 *369:A2 0
22 *79:47 *93:21 0
23 *79:47 *176:28 0.000305011
24 *79:47 *199:47 0
25 *79:51 *369:A2 0.000240118
26 *79:57 *406:A 0
27 *79:57 *129:12 0
28 *79:57 *187:28 0
29 *79:57 *192:44 0
30 *79:57 *204:10 0
31 *73:108 *79:47 0
32 *76:19 *79:51 0
*RES
1 *342:Y *79:8 40.8446 
2 *79:8 *79:14 47.2409 
3 *79:14 *355:A 40 
4 *79:14 *346:A 43.9964 
5 *342:Y *79:47 44.3775 
6 *79:47 *79:51 21.6171 
7 *79:51 *79:57 42.8222 
8 *79:57 *413:A1 20 
9 *79:51 *369:B1 20 
*END

*D_NET *80 0.0041459
*CONN
*I *356:A I *D sg13g2_nor3_1
*I *344:B I *D sg13g2_nand2b_1
*I *359:B_N I *D sg13g2_nor2b_1
*I *371:B I *D sg13g2_nand2_1
*I *343:Y O *D sg13g2_nor3_1
*CAP
1 *356:A 0.000283297
2 *344:B 0.000184272
3 *359:B_N 0.000412145
4 *371:B 0.000258156
5 *343:Y 0.000182021
6 *80:14 0.000818005
7 *80:10 0.000560718
8 *80:6 0.00069406
9 *344:B *344:A_N 4.77425e-05
10 *344:B *349:A 0.000273639
11 *344:B *84:8 0
12 *356:A *348:A 0
13 *356:A *350:A_N 4.76034e-05
14 *356:A *83:21 0.000143041
15 *356:A *84:8 0
16 *359:B_N *349:A 0
17 *359:B_N *360:B 0
18 *359:B_N *360:C 0
19 *359:B_N *414:A2 0
20 *371:B *371:A 6.37961e-05
21 *371:B *414:A2 0
22 *371:B *414:A1 0
23 *371:B *438:RESET_B 0
24 *80:6 *349:A 0
25 *80:6 *350:A_N 0
26 *80:6 *210:77 4.77425e-05
27 *80:10 *83:32 0.000129657
28 *4:8 *80:14 0
29 *64:10 *371:B 0
30 *64:10 *80:14 0
*RES
1 *343:Y *80:6 21.6171 
2 *80:6 *80:10 22.0806 
3 *80:10 *80:14 21.0918 
4 *80:14 *371:B 22.3999 
5 *80:14 *359:B_N 23.7801 
6 *80:10 *344:B 42.0497 
7 *80:6 *356:A 23.1003 
*END

*D_NET *81 0.00296869
*CONN
*I *346:B I *D sg13g2_and3_1
*I *355:B I *D sg13g2_nand3_1
*I *344:Y O *D sg13g2_nand2b_1
*CAP
1 *346:B 0.000277837
2 *355:B 0
3 *344:Y 0.000407038
4 *81:14 0.00040913
5 *81:10 0.000538331
6 *346:B *346:C 0
7 *346:B *352:B 0
8 *346:B *210:69 0
9 *81:10 *356:B 0.000483216
10 *81:10 *83:21 0.000337236
11 *81:10 *84:10 0.000131027
12 *81:10 *209:71 0
13 *81:14 *352:B 0.000111787
14 *81:14 *89:6 0
15 *346:A *346:B 0.000273087
16 *449:D *81:10 0
*RES
1 *344:Y *81:10 45.1191 
2 *81:10 *81:14 21.1845 
3 *81:14 *355:B 20 
4 *81:14 *346:B 22.9664 
*END

*D_NET *82 0.000600777
*CONN
*I *346:C I *D sg13g2_and3_1
*I *345:Y O *D sg13g2_a21oi_1
*CAP
1 *346:C 0.000276628
2 *345:Y 0.000276628
3 *346:C *200:54 0
4 *346:C *210:69 4.75212e-05
5 *346:B *346:C 0
6 *447:D *346:C 0
*RES
1 *345:Y *346:C 42.6677 
*END

*D_NET *83 0.00370651
*CONN
*I *348:B I *D sg13g2_and2_1
*I *351:B1 I *D sg13g2_a22oi_1
*I *350:B I *D sg13g2_nand3b_1
*I *347:Y O *D sg13g2_nor2b_1
*CAP
1 *348:B 0
2 *351:B1 0
3 *350:B 0
4 *347:Y 0.00015363
5 *83:32 9.67288e-05
6 *83:21 0.000457117
7 *83:6 0.000707476
8 *83:6 *343:C 0.000239926
9 *83:6 *347:A 1.54008e-05
10 *83:6 *350:C 3.23417e-05
11 *83:6 *350:A_N 0
12 *83:6 *210:69 7.92265e-05
13 *83:21 *343:C 8.005e-05
14 *83:21 *350:C 1.54008e-05
15 *83:21 *351:A1 0.000208327
16 *83:21 *352:B 0.000337528
17 *83:21 *356:B 7.89542e-05
18 *83:32 *348:A 0.000287017
19 *83:32 *350:C 7.48842e-05
20 *356:A *83:21 0.000143041
21 *449:D *83:21 0.000232563
22 *80:10 *83:32 0.000129657
23 *81:10 *83:21 0.000337236
*RES
1 *347:Y *83:6 21.6171 
2 *83:6 *350:B 20 
3 *83:6 *83:21 45.4693 
4 *83:21 *351:B1 20 
5 *83:6 *83:32 41.5862 
6 *83:32 *348:B 20 
*END

*D_NET *84 0.00392539
*CONN
*I *356:B I *D sg13g2_nor3_1
*I *414:A1 I *D sg13g2_a22oi_1
*I *360:A I *D sg13g2_nor3_1
*I *348:X O *D sg13g2_and2_1
*CAP
1 *356:B 0.000278052
2 *414:A1 0.000116363
3 *360:A 0.000662974
4 *348:X 6.20364e-05
5 *84:10 0.00107095
6 *84:8 0.000631702
7 *356:B *343:C 4.68099e-05
8 *356:B *348:A 0
9 *360:A *360:B 0
10 *360:A *451:RESET_B 0
11 *360:A *451:CLK 0.000218839
12 *360:A *145:8 0
13 *360:A *155:21 0.000144466
14 *360:A *200:20 0
15 *414:A1 *371:A 0
16 *84:10 *371:A 0
17 *84:10 *155:12 0
18 *84:10 *193:39 0
19 *344:B *84:8 0
20 *356:A *84:8 0
21 *371:B *414:A1 0
22 *64:10 *414:A1 0
23 *64:10 *84:10 0
24 *81:10 *356:B 0.000483216
25 *81:10 *84:10 0.000131027
26 *83:21 *356:B 7.89542e-05
*RES
1 *348:X *84:8 40.5356 
2 *84:8 *84:10 2.8222 
3 *84:10 *360:A 46.901 
4 *84:10 *414:A1 40.9682 
5 *84:8 *356:B 43.296 
*END

*D_NET *85 0.00495555
*CONN
*I *350:A_N I *D sg13g2_nand3b_1
*I *360:B I *D sg13g2_nor3_1
*I *414:A2 I *D sg13g2_a22oi_1
*I *349:Y O *D sg13g2_nor2_1
*CAP
1 *350:A_N 0.000360789
2 *360:B 0.000341356
3 *414:A2 0.000339761
4 *349:Y 0.000162979
5 *85:14 0.000924584
6 *85:8 0.000767236
7 *350:A_N *347:A 3.23417e-05
8 *350:A_N *350:C 4.76034e-05
9 *350:A_N *200:37 0.000608826
10 *350:A_N *210:69 7.9608e-05
11 *350:A_N *210:77 0.000180603
12 *360:B *360:C 1.54556e-05
13 *360:B *451:CLK 0
14 *414:A2 *451:CLK 0.000209697
15 *414:A2 *155:6 1.54008e-05
16 *414:A2 *155:21 0.000209114
17 *85:8 *349:A 0.000274638
18 *85:8 *208:8 0
19 *85:8 *210:77 0
20 *85:14 *200:37 0.000290042
21 *356:A *350:A_N 4.76034e-05
22 *359:B_N *360:B 0
23 *359:B_N *414:A2 0
24 *360:A *360:B 0
25 *371:B *414:A2 0
26 *4:8 *85:14 0
27 *64:10 *414:A2 4.79124e-05
28 *80:6 *350:A_N 0
29 *83:6 *350:A_N 0
*RES
1 *349:Y *85:8 41.8334 
2 *85:8 *85:14 22.8634 
3 *85:14 *414:A2 23.5844 
4 *85:14 *360:B 23.502 
5 *85:8 *350:A_N 44.6556 
*END

*D_NET *86 0.00143074
*CONN
*I *355:C I *D sg13g2_nand3_1
*I *352:A I *D sg13g2_nand2_1
*I *350:Y O *D sg13g2_nand3b_1
*CAP
1 *355:C 5.90953e-05
2 *352:A 0.000294526
3 *350:Y 0.000112377
4 *86:10 0.000465998
5 *352:A *352:B 0
6 *352:A *209:71 0
7 *355:C *210:69 0
8 *355:C *211:18 0.000158976
9 *86:10 *343:C 7.9966e-05
10 *86:10 *209:71 7.97988e-05
11 *86:10 *210:69 0
12 *86:10 *211:18 0.000180007
*RES
1 *350:Y *86:10 41.3802 
2 *86:10 *352:A 42.266 
3 *86:10 *355:C 40.8446 
*END

*D_NET *87 0.00183562
*CONN
*I *352:B I *D sg13g2_nand2_1
*I *351:Y O *D sg13g2_a22oi_1
*CAP
1 *352:B 0.000693151
2 *351:Y 0.000693151
3 *352:B *315:A 0
4 *352:B *343:C 0
5 *352:B *358:A2 0
6 *352:B *89:6 0
7 *346:A *352:B 0
8 *346:B *352:B 0
9 *352:A *352:B 0
10 *81:14 *352:B 0.000111787
11 *83:21 *352:B 0.000337528
*RES
1 *351:Y *352:B 46.6332 
*END

*D_NET *88 0.00758356
*CONN
*I *411:A1 I *D sg13g2_a21oi_1
*I *374:A2 I *D sg13g2_o21ai_1
*I *465:A I *D sg13g2_buf_1
*I *353:Y O *D sg13g2_a22oi_1
*CAP
1 *411:A1 3.35894e-05
2 *374:A2 0.000432767
3 *465:A 0
4 *353:Y 0.000243122
5 *88:52 0.000537963
6 *88:33 0.00130124
7 *88:20 0.000380627
8 *88:6 0.000987846
9 *374:A2 *100:17 0
10 *374:A2 *102:73 1.54556e-05
11 *374:A2 *155:46 0
12 *374:A2 *186:10 0
13 *374:A2 *199:28 0
14 *411:A1 *413:A2 0
15 *88:6 *353:B1 0.000274189
16 *88:6 *353:B2 1.54008e-05
17 *88:6 *196:42 0
18 *88:6 *199:47 0
19 *88:20 *330:A 0
20 *88:20 *156:12 0
21 *88:20 *187:10 0.000182913
22 *88:20 *187:14 0.000233913
23 *88:20 *196:57 0
24 *88:20 *199:47 0
25 *88:20 *204:10 0
26 *88:33 *176:58 0.000922837
27 *88:33 *187:14 0.000871698
28 *88:33 *187:28 0
29 *88:33 *204:10 0
30 *88:52 *411:B1 0
31 *313:A *374:A2 0.000266609
32 *313:A *88:33 0.0001289
33 *374:A1 *374:A2 1.54556e-05
34 *375:A1 *374:A2 0.00061038
35 *453:D *88:6 0
36 *54:10 *88:20 0.000128662
*RES
1 *353:Y *88:6 22.266 
2 *88:6 *88:20 44.0067 
3 *88:20 *465:A 20 
4 *88:6 *88:33 26.2109 
5 *88:33 *374:A2 45.2427 
6 *88:33 *88:52 45.7062 
7 *88:52 *411:A1 40.3193 
*END

*D_NET *89 0.0017323
*CONN
*I *357:A1 I *D sg13g2_o21ai_1
*I *358:A2 I *D sg13g2_o21ai_1
*I *355:Y O *D sg13g2_nand3_1
*CAP
1 *357:A1 0
2 *358:A2 0.000515353
3 *355:Y 0.000150385
4 *89:6 0.000665738
5 *358:A2 *315:A 0.000144894
6 *358:A2 *357:A2 0
7 *358:A2 *358:B1 0.000145003
8 *358:A2 *196:17 0
9 *89:6 *357:A2 1.54556e-05
10 *89:6 *209:63 0
11 *352:B *358:A2 0
12 *352:B *89:6 0
13 *358:A1 *358:A2 4.77537e-05
14 *72:16 *358:A2 4.77154e-05
15 *81:14 *89:6 0
*RES
1 *355:Y *89:6 21.1192 
2 *89:6 *358:A2 24.9502 
3 *89:6 *357:A1 20 
*END

*D_NET *90 0.000982677
*CONN
*I *357:A2 I *D sg13g2_o21ai_1
*I *356:Y O *D sg13g2_nor3_1
*CAP
1 *357:A2 6.40028e-05
2 *356:Y 0.000329414
3 *90:8 0.000393417
4 *357:A2 *358:B1 0
5 *90:8 *142:8 0.000180387
6 *90:8 *209:48 0
7 *90:8 *209:63 0
8 *358:A2 *357:A2 0
9 *449:D *90:8 0
10 *89:6 *357:A2 1.54556e-05
*RES
1 *356:Y *90:8 42.575 
2 *90:8 *357:A2 40.5356 
*END

*D_NET *91 0.00126132
*CONN
*I *358:B1 I *D sg13g2_o21ai_1
*I *357:Y O *D sg13g2_o21ai_1
*CAP
1 *358:B1 0.000454073
2 *357:Y 0.000454073
3 *358:B1 *316:A 4.77425e-05
4 *358:B1 *196:36 1.54008e-05
5 *358:B1 *196:40 0
6 *358:B1 *209:63 0.000145031
7 *358:B1 *210:59 0
8 *357:A2 *358:B1 0
9 *358:A2 *358:B1 0.000145003
*RES
1 *357:Y *358:B1 44.4496 
*END

*D_NET *92 0.000194851
*CONN
*I *360:C I *D sg13g2_nor3_1
*I *359:Y O *D sg13g2_nor2b_1
*CAP
1 *360:C 8.96977e-05
2 *359:Y 8.96977e-05
3 *359:B_N *360:C 0
4 *360:B *360:C 1.54556e-05
*RES
1 *359:Y *360:C 41.133 
*END

*D_NET *93 0.00297433
*CONN
*I *366:B1 I *D sg13g2_a22oi_1
*I *362:A0 I *D sg13g2_mux2_1
*I *369:A2 I *D sg13g2_o21ai_1
*I *361:X O *D sg13g2_and2_1
*CAP
1 *366:B1 0.000106244
2 *362:A0 0.000166111
3 *369:A2 0.00029762
4 *361:X 3.21503e-05
5 *93:21 0.000346742
6 *93:8 0.000404157
7 *362:A0 *176:28 0.000274561
8 *366:B1 *366:A1 0
9 *366:B1 *97:10 0.000285453
10 *369:A2 *97:10 0.000286934
11 *369:A2 *187:28 0
12 *93:21 *97:10 0.000179386
13 *50:52 *362:A0 0.000307018
14 *50:52 *93:8 0
15 *73:108 *366:B1 0
16 *76:19 *369:A2 0
17 *76:19 *93:8 4.78356e-05
18 *79:47 *366:B1 0
19 *79:47 *369:A2 0
20 *79:47 *93:21 0
21 *79:51 *369:A2 0.000240118
*RES
1 *361:X *93:8 40.3193 
2 *93:8 *369:A2 43.2039 
3 *93:8 *93:21 0.8446 
4 *93:21 *362:A0 42.0497 
5 *93:21 *366:B1 41.339 
*END

*D_NET *94 0.0038902
*CONN
*I *365:C I *D sg13g2_nand4_1
*I *383:A1 I *D sg13g2_a21oi_1
*I *395:B1 I *D sg13g2_a21oi_1
*I *389:A1 I *D sg13g2_a21oi_1
*I *396:A2 I *D sg13g2_a21oi_1
*I *363:X O *D sg13g2_or2_1
*CAP
1 *365:C 0.000607246
2 *383:A1 0
3 *395:B1 0
4 *389:A1 0.000342546
5 *396:A2 2.68344e-05
6 *363:X 0.0007899
7 *94:14 0.000551802
8 *94:12 0.000461201
9 *94:8 0.000461433
10 *365:C *363:B 4.75212e-05
11 *365:C *365:D 0.000135783
12 *365:C *454:CLK 0
13 *365:C *156:12 0
14 *389:A1 *389:A2 0.000177598
15 *389:A1 *120:10 1.54008e-05
16 *389:A1 *162:32 0
17 *389:A1 *191:90 4.77425e-05
18 *396:A2 *162:32 0
19 *94:8 *364:A 0
20 *94:8 *383:A2 1.54556e-05
21 *94:8 *195:8 0
22 *94:12 *383:A2 0
23 *94:12 *387:B 0
24 *94:14 *395:A2 0
25 *94:14 *120:10 0.000209736
26 *73:10 *365:C 0
27 *73:10 *94:8 0
28 *73:10 *94:12 0
29 *73:10 *94:14 0
*RES
1 *363:X *94:8 21.9982 
2 *94:8 *94:12 2.6162 
3 *94:12 *94:14 1.8334 
4 *94:14 *396:A2 20.3502 
5 *94:14 *389:A1 23.2136 
6 *94:12 *395:B1 20 
7 *94:8 *383:A1 20 
8 *363:X *365:C 45.8607 
*END

*D_NET *95 0.00300326
*CONN
*I *365:D I *D sg13g2_nand4_1
*I *387:B I *D sg13g2_nor2_1
*I *383:A2 I *D sg13g2_a21oi_1
*I *364:Y O *D sg13g2_nand2_1
*CAP
1 *365:D 0.000862304
2 *387:B 0.000175106
3 *383:A2 0.000122997
4 *364:Y 0
5 *95:6 0.000346313
6 *95:4 0.000910514
7 *365:D *363:B 7.9885e-05
8 *365:D *364:A 0.000129487
9 *365:D *364:B 0.000177501
10 *365:D *149:10 0
11 *365:D *150:10 0
12 *365:D *151:10 0
13 *365:D *194:21 0
14 *383:A2 *364:A 0
15 *387:B *151:10 0
16 *387:B *171:8 0
17 *95:6 *364:A 4.79124e-05
18 *95:6 *364:B 0
19 *95:6 *151:10 0
20 *365:C *365:D 0.000135783
21 *94:8 *383:A2 1.54556e-05
22 *94:12 *383:A2 0
23 *94:12 *387:B 0
*RES
1 *364:Y *95:4 20 
2 *95:4 *95:6 0.7519 
3 *95:6 *383:A2 21.3802 
4 *95:6 *387:B 21.8334 
5 *95:4 *365:D 28.5799 
*END

*D_NET *96 0.00134023
*CONN
*I *366:B2 I *D sg13g2_a22oi_1
*I *365:Y O *D sg13g2_nand4_1
*CAP
1 *366:B2 3.19585e-05
2 *365:Y 0.000248262
3 *96:8 0.000280221
4 *366:B2 *97:10 4.79124e-05
5 *366:B2 *199:47 0
6 *96:8 *366:A1 0.000444118
7 *96:8 *148:12 0
8 *96:8 *148:25 0
9 *96:8 *150:10 0.000287759
10 *96:8 *196:70 0
11 *96:8 *204:10 0
*RES
1 *365:Y *96:8 43.3166 
2 *96:8 *366:B2 40.3193 
*END

*D_NET *97 0.00210514
*CONN
*I *367:A I *D sg13g2_inv_1
*I *366:Y O *D sg13g2_a22oi_1
*CAP
1 *367:A 0
2 *366:Y 0.000244514
3 *97:10 0.000244514
4 *97:10 *366:A1 0
5 *97:10 *199:47 0
6 *97:10 *204:10 0.000816424
7 *366:B1 *97:10 0.000285453
8 *366:B2 *97:10 4.79124e-05
9 *369:A2 *97:10 0.000286934
10 *93:21 *97:10 0.000179386
*RES
1 *366:Y *97:10 44.3466 
2 *97:10 *367:A 40 
*END

*D_NET *98 0.00309393
*CONN
*I *370:A I *D sg13g2_nand2_1
*I *399:B I *D sg13g2_nor2_1
*I *368:Y O *D sg13g2_o21ai_1
*CAP
1 *370:A 0
2 *399:B 0
3 *368:Y 0.000216176
4 *98:27 0.000400691
5 *98:14 0.000429769
6 *98:6 0.00104664
7 *98:6 *393:A 0
8 *98:6 *192:14 0.000209829
9 *98:14 *393:A 0
10 *98:14 *393:B_N 4.77425e-05
11 *98:14 *401:A1 0.000392195
12 *98:14 *123:14 0
13 *98:14 *195:68 5.15366e-05
14 *98:27 *370:B 0
15 *98:27 *110:8 0.000283958
16 *98:27 *152:8 1.54008e-05
17 *98:27 *171:14 0
18 *98:27 *195:68 0
19 *50:52 *98:6 0
20 *50:52 *98:14 0
21 *73:10 *98:27 0
*RES
1 *368:Y *98:6 22.0497 
2 *98:6 *98:14 44.1921 
3 *98:14 *399:B 20 
4 *98:6 *98:27 43.8213 
5 *98:27 *370:A 20 
*END

*D_NET *99 0.002765
*CONN
*I *370:B I *D sg13g2_nand2_1
*I *369:Y O *D sg13g2_o21ai_1
*CAP
1 *370:B 3.21473e-05
2 *369:Y 0.000738421
3 *99:16 0.000770568
4 *99:16 *192:14 0
5 *99:16 *192:20 0.000497251
6 *99:16 *192:40 0.000336747
7 *99:16 *192:57 0
8 *99:16 *195:12 0.000211817
9 *99:16 *195:18 0.000178047
10 *99:16 *195:20 0
11 *401:B1 *99:16 0
12 *73:10 *370:B 0
13 *76:6 *99:16 0
14 *76:19 *99:16 0
15 *98:27 *370:B 0
*RES
1 *369:Y *99:16 48.1473 
2 *99:16 *370:B 40.2858 
*END

*D_NET *100 0.00431404
*CONN
*I *373:B I *D sg13g2_nand2_1
*I *411:A2 I *D sg13g2_a21oi_1
*I *372:B I *D sg13g2_and2_1
*I *414:B1 I *D sg13g2_a22oi_1
*I *371:Y O *D sg13g2_nand2_1
*CAP
1 *373:B 0
2 *411:A2 0.000311197
3 *372:B 0.000128603
4 *414:B1 5.28625e-05
5 *371:Y 7.16871e-05
6 *100:19 0.0004398
7 *100:17 0.00106313
8 *100:6 0.00118768
9 *372:B *187:41 0
10 *411:A2 *102:12 0
11 *411:A2 *157:40 0
12 *411:A2 *187:41 0
13 *414:B1 *438:RESET_B 0
14 *100:17 *414:B2 0
15 *100:17 *438:RESET_B 0
16 *100:17 *456:CLK 0
17 *100:17 *477:A 0
18 *100:17 *102:12 4.78195e-05
19 *100:17 *102:73 0.000291579
20 *100:17 *155:42 0
21 *100:17 *155:46 0
22 *100:17 *187:28 0
23 *100:17 *199:37 0
24 *374:A1 *372:B 0
25 *374:A1 *100:17 0.000598379
26 *374:A2 *100:17 0
27 *46:8 *411:A2 0
28 *46:18 *411:A2 7.34081e-05
29 *64:10 *414:B1 4.79014e-05
*RES
1 *371:Y *100:6 20.8446 
2 *100:6 *414:B1 20.6695 
3 *100:6 *100:17 11.3506 
4 *100:17 *100:19 20 
5 *100:19 *372:B 41.0918 
6 *100:19 *411:A2 42.575 
7 *100:17 *373:B 20 
*END

*D_NET *101 0.00728122
*CONN
*I *405:B I *D sg13g2_nand2_1
*I *392:B I *D sg13g2_nand2_1
*I *390:B I *D sg13g2_nand2_1
*I *376:B I *D sg13g2_nand2_1
*I *372:X O *D sg13g2_and2_1
*CAP
1 *405:B 0
2 *392:B 0.000325512
3 *390:B 0
4 *376:B 2.79406e-05
5 *372:X 0.000546229
6 *101:31 0.00105161
7 *101:23 0.00127302
8 *101:6 0.00112109
9 *376:B *432:CLK 0
10 *392:B *398:B1 0.000177399
11 *392:B *398:A1 1.54008e-05
12 *392:B *408:A1 0
13 *392:B *116:8 0.000126441
14 *392:B *198:67 0
15 *392:B *203:16 0
16 *101:6 *379:A1 0
17 *101:6 *431:CLK 0.000242313
18 *101:6 *474:A 0
19 *101:6 *104:10 0
20 *101:6 *187:45 0
21 *101:6 *198:35 0
22 *101:23 *410:A1 4.70638e-05
23 *101:23 *432:CLK 0.000209016
24 *101:23 *186:20 0
25 *101:23 *187:51 7.33256e-05
26 *101:23 *187:74 0.000264779
27 *101:23 *198:35 0
28 *101:31 *408:A1 0
29 *101:31 *410:A1 0
30 *101:31 *410:A2 0
31 *101:31 *132:10 0.000390471
32 *101:31 *153:40 0.000659311
33 *101:31 *174:10 0.000233267
34 *101:31 *198:67 0
35 *101:31 *203:16 0
36 *374:A1 *101:6 1.54556e-05
37 *390:A *392:B 1.54008e-05
38 *392:A *392:B 0
39 *405:A *101:31 0.000241149
40 *434:D *392:B 0
41 *28:8 *101:23 0
42 *34:27 *392:B 0
43 *40:12 *101:6 0.000209637
44 *40:20 *376:B 0
45 *40:20 *101:6 0
46 *40:20 *101:23 0
47 *40:26 *101:23 0
48 *44:29 *392:B 1.54008e-05
49 *45:12 *392:B 0
50 *60:10 *101:31 0
51 *73:68 *101:6 0
52 *74:25 *101:6 0
*RES
1 *372:X *101:6 25.2289 
2 *101:6 *376:B 20.3502 
3 *101:6 *101:23 45.6856 
4 *101:23 *101:31 28.4666 
5 *101:31 *390:B 40 
6 *101:31 *392:B 43.811 
7 *101:23 *405:B 20 
*END

*D_NET *102 0.00848466
*CONN
*I *374:B1 I *D sg13g2_o21ai_1
*I *413:A2 I *D sg13g2_a221oi_1
*I *386:A2 I *D sg13g2_o21ai_1
*I *404:A2 I *D sg13g2_o21ai_1
*I *373:Y O *D sg13g2_nand2_1
*CAP
1 *374:B1 0
2 *413:A2 0.000264029
3 *386:A2 0
4 *404:A2 0.000295038
5 *373:Y 0
6 *102:73 0.000434963
7 *102:49 0.00030404
8 *102:26 0.00135726
9 *102:12 0.00142761
10 *102:4 0.000840359
11 *404:A2 *385:A2 1.54008e-05
12 *404:A2 *404:B1 0.000208698
13 *404:A2 *407:A_N 0
14 *404:A2 *127:10 0
15 *404:A2 *163:20 1.54008e-05
16 *404:A2 *163:33 0.000208532
17 *404:A2 *182:20 0
18 *413:A2 *331:B 0
19 *413:A2 *406:B 7.99179e-05
20 *413:A2 *411:B1 0
21 *413:A2 *157:40 0
22 *102:12 *373:A 4.7796e-05
23 *102:12 *411:B1 7.4627e-05
24 *102:12 *129:12 5.18162e-05
25 *102:12 *157:40 0
26 *102:26 *332:B 7.97988e-05
27 *102:26 *384:B 0
28 *102:26 *385:A2 0.000225262
29 *102:26 *399:A 0
30 *102:26 *401:A1 0
31 *102:26 *406:B 0.000192877
32 *102:26 *407:A_N 0
33 *102:26 *124:10 0
34 *102:26 *157:40 0
35 *102:49 *386:B1 8.00842e-05
36 *102:49 *432:RESET_B 0
37 *102:49 *144:33 0
38 *102:73 *373:A 5.75612e-05
39 *102:73 *155:52 0.000153931
40 *102:73 *187:28 0.00031177
41 *102:73 *187:41 0
42 *374:A1 *102:12 0.00028661
43 *374:A1 *102:73 0
44 *374:A2 *102:73 1.54556e-05
45 *381:A2 *102:26 0
46 *385:B1 *102:49 0.000179006
47 *403:B1 *404:A2 0
48 *411:A1 *413:A2 0
49 *411:A2 *102:12 0
50 *46:8 *102:73 0.000232418
51 *73:28 *404:A2 5.05102e-05
52 *73:43 *404:A2 5.05102e-05
53 *73:43 *102:49 0
54 *74:10 *102:12 0.000603969
55 *75:12 *102:26 0
56 *100:17 *102:12 4.78195e-05
57 *100:17 *102:73 0.000291579
*RES
1 *373:Y *102:4 20 
2 *102:4 *102:12 44.8101 
3 *102:12 *102:26 7.9831 
4 *102:26 *404:A2 23.3321 
5 *102:26 *102:49 42.8325 
6 *102:49 *386:A2 20 
7 *102:12 *413:A2 22.4643 
8 *102:4 *102:73 44.9749 
9 *102:73 *374:B1 20 
*END

*D_NET *103 0.000184228
*CONN
*I *375:A2 I *D sg13g2_a21o_1
*I *374:Y O *D sg13g2_o21ai_1
*CAP
1 *375:A2 8.97567e-06
2 *374:Y 6.61673e-05
3 *103:8 7.51429e-05
4 *375:A2 *155:46 1.69409e-05
5 *375:A1 *375:A2 1.70012e-05
6 *375:A1 *103:8 0
*RES
1 *374:Y *103:8 40.5974 
2 *103:8 *375:A2 40.1133 
*END

*D_NET *104 0.000864952
*CONN
*I *380:B1 I *D sg13g2_o21ai_1
*I *376:Y O *D sg13g2_nand2_1
*CAP
1 *380:B1 0.000154688
2 *376:Y 0.000165613
3 *104:10 0.000320301
4 *380:B1 *157:10 0.000177043
5 *380:B1 *187:51 0
6 *104:10 *171:14 0
7 *40:20 *104:10 4.73078e-05
8 *101:6 *104:10 0
*RES
1 *376:Y *104:10 41.4111 
2 *104:10 *380:B1 41.4008 
*END

*D_NET *105 0.000357025
*CONN
*I *379:A1 I *D sg13g2_a21oi_1
*I *377:X O *D sg13g2_or2_1
*CAP
1 *379:A1 0.000146886
2 *377:X 0.000146886
3 *379:A1 *379:A2 4.78524e-05
4 *379:A1 *107:12 1.54008e-05
5 *73:68 *379:A1 0
6 *74:25 *379:A1 0
7 *101:6 *379:A1 0
*RES
1 *377:X *379:A1 41.6274 
*END

*D_NET *106 0.000422711
*CONN
*I *379:A2 I *D sg13g2_a21oi_1
*I *378:Y O *D sg13g2_a21oi_1
*CAP
1 *379:A2 3.29519e-05
2 *378:Y 0.000154477
3 *106:8 0.000187429
4 *106:8 *382:B 0
5 *106:8 *157:23 0
6 *379:A1 *379:A2 4.78524e-05
7 *40:8 *106:8 0
*RES
1 *378:Y *106:8 41.0918 
2 *106:8 *379:A2 40.3193 
*END

*D_NET *107 0.00105824
*CONN
*I *380:A2 I *D sg13g2_o21ai_1
*I *379:Y O *D sg13g2_a21oi_1
*CAP
1 *380:A2 0
2 *379:Y 0.000273379
3 *107:12 0.000273379
4 *107:12 *157:23 0.000496082
5 *379:A1 *107:12 1.54008e-05
6 *40:8 *107:12 0
*RES
1 *379:Y *107:12 43.2136 
2 *107:12 *380:A2 40 
*END

*D_NET *108 0.000372657
*CONN
*I *384:A I *D sg13g2_nor3_1
*I *381:Y O *D sg13g2_a21oi_1
*CAP
1 *384:A 0.000154757
2 *381:Y 0.000154757
3 *384:A *384:B 4.77425e-05
4 *384:A *386:B1 0
5 *381:A2 *384:A 1.54008e-05
*RES
1 *381:Y *384:A 41.6274 
*END

*D_NET *109 0.000542094
*CONN
*I *384:B I *D sg13g2_nor3_1
*I *382:X O *D sg13g2_and3_1
*CAP
1 *384:B 0.000247176
2 *382:X 0.000247176
3 *384:B *385:A2 0
4 *381:A2 *384:B 0
5 *384:A *384:B 4.77425e-05
6 *102:26 *384:B 0
*RES
1 *382:X *384:B 42.5029 
*END

*D_NET *110 0.00226387
*CONN
*I *384:C I *D sg13g2_nor3_1
*I *383:Y O *D sg13g2_a21oi_1
*CAP
1 *384:C 0
2 *383:Y 0.000818661
3 *110:14 0.000171297
4 *110:8 0.000989958
5 *110:8 *171:14 0
6 *110:8 *192:14 0
7 *110:8 *192:20 0
8 *75:8 *110:8 0
9 *98:27 *110:8 0.000283958
*RES
1 *383:Y *110:8 48.0134 
2 *110:8 *110:14 41.8334 
3 *110:14 *384:C 40 
*END

*D_NET *111 0.000935173
*CONN
*I *385:A2 I *D sg13g2_o21ai_1
*I *384:Y O *D sg13g2_nor3_1
*CAP
1 *385:A2 0.000267205
2 *384:Y 0.000267205
3 *381:B1 *385:A2 0
4 *384:B *385:A2 0
5 *385:B1 *385:A2 0.000112392
6 *404:A2 *385:A2 1.54008e-05
7 *73:28 *385:A2 1.53666e-05
8 *73:43 *385:A2 3.23417e-05
9 *102:26 *385:A2 0.000225262
*RES
1 *384:Y *385:A2 43.0694 
*END

*D_NET *112 0.000343688
*CONN
*I *386:B1 I *D sg13g2_o21ai_1
*I *385:Y O *D sg13g2_o21ai_1
*CAP
1 *386:B1 0.000124101
2 *385:Y 0.000124101
3 *384:A *386:B1 0
4 *432:D *386:B1 1.54008e-05
5 *102:49 *386:B1 8.00842e-05
*RES
1 *385:Y *386:B1 41.3802 
*END

*D_NET *113 0.000358455
*CONN
*I *388:S I *D sg13g2_mux2_1
*I *387:Y O *D sg13g2_nor2_1
*CAP
1 *388:S 0.000179227
2 *387:Y 0.000179227
3 *388:S *395:A2 0
4 *388:S *144:62 0
5 *309:A *388:S 0
*RES
1 *387:Y *388:S 41.9982 
*END

*D_NET *114 0.000861894
*CONN
*I *389:A2 I *D sg13g2_a21oi_1
*I *388:X O *D sg13g2_mux2_1
*CAP
1 *389:A2 0.00022103
2 *388:X 0.00022103
3 *389:A2 *395:A2 0
4 *389:A2 *191:90 0
5 *388:A0 *389:A2 0.000242236
6 *389:A1 *389:A2 0.000177598
*RES
1 *388:X *389:A2 42.4617 
*END

*D_NET *115 0.000999679
*CONN
*I *391:A2 I *D sg13g2_o21ai_1
*I *389:Y O *D sg13g2_a21oi_1
*CAP
1 *391:A2 5.45249e-05
2 *389:Y 0.000170121
3 *115:8 0.000224646
4 *391:A2 *391:B1 1.54008e-05
5 *391:A2 *398:A2 0
6 *391:A2 *187:89 1.54008e-05
7 *115:8 *323:B 0.000340113
8 *115:8 *144:58 0
9 *115:8 *191:94 0.000179473
*RES
1 *389:Y *115:8 42.3278 
2 *115:8 *391:A2 40.5356 
*END

*D_NET *116 0.00181978
*CONN
*I *391:B1 I *D sg13g2_o21ai_1
*I *390:Y O *D sg13g2_nand2_1
*CAP
1 *391:B1 0.000159259
2 *390:Y 0.000215801
3 *116:8 0.000375059
4 *391:B1 *398:A2 0
5 *391:B1 *166:10 0
6 *391:B1 *198:67 7.9947e-05
7 *116:8 *198:67 0
8 *390:A *116:8 0.000543815
9 *391:A2 *391:B1 1.54008e-05
10 *392:B *116:8 0.000126441
11 *433:D *391:B1 0.000176274
12 *60:10 *116:8 0.00012778
*RES
1 *390:Y *116:8 42.8222 
2 *116:8 *391:B1 41.6171 
*END

*D_NET *117 0.000490301
*CONN
*I *398:B1 I *D sg13g2_o21ai_1
*I *392:Y O *D sg13g2_nand2_1
*CAP
1 *398:B1 0.00014875
2 *392:Y 0.00014875
3 *398:B1 *398:A2 1.54008e-05
4 *398:B1 *198:69 0
5 *392:B *398:B1 0.000177399
6 *434:D *398:B1 0
*RES
1 *392:Y *398:B1 41.6171 
*END

*D_NET *118 0.000949481
*CONN
*I *394:B I *D sg13g2_nand2_1
*I *402:B2 I *D sg13g2_a221oi_1
*I *393:Y O *D sg13g2_nor2b_1
*CAP
1 *394:B 0.00011198
2 *402:B2 0.000242502
3 *393:Y 0
4 *118:4 0.000354483
5 *394:B *393:A 0
6 *394:B *402:A2 0
7 *394:B *470:A 0
8 *394:B *119:6 4.79124e-05
9 *402:B2 *402:B1 0
10 *402:B2 *408:A2 1.54008e-05
11 *402:B2 *119:6 0
12 *402:B2 *125:8 0.000177203
13 *50:52 *394:B 0
*RES
1 *393:Y *118:4 20 
2 *118:4 *402:B2 22.5956 
3 *118:4 *394:B 21.3802 
*END

*D_NET *119 0.00107889
*CONN
*I *397:A1 I *D sg13g2_a21oi_1
*I *402:A2 I *D sg13g2_a221oi_1
*I *394:Y O *D sg13g2_nand2_1
*CAP
1 *397:A1 0
2 *402:A2 0.000156431
3 *394:Y 8.15152e-05
4 *119:25 0.000149338
5 *119:6 0.000387285
6 *402:A2 *398:A2 0
7 *402:A2 *402:B1 0
8 *119:25 *394:A 0
9 *119:25 *397:A2 4.79014e-05
10 *119:25 *171:14 0
11 *394:B *402:A2 0
12 *394:B *119:6 4.79124e-05
13 *402:B2 *119:6 0
14 *73:10 *119:6 0
15 *73:16 *402:A2 6.49135e-05
16 *73:16 *119:25 0.00012816
17 *73:22 *402:A2 1.54285e-05
18 *73:22 *119:25 0
*RES
1 *394:Y *119:6 20.7834 
2 *119:6 *402:A2 21.8076 
3 *119:6 *119:25 41.5965 
4 *119:25 *397:A1 20 
*END

*D_NET *120 0.00101214
*CONN
*I *396:B1 I *D sg13g2_a21oi_1
*I *395:Y O *D sg13g2_a21oi_1
*CAP
1 *396:B1 0
2 *395:Y 0.000265917
3 *120:10 0.000265917
4 *120:10 *395:A2 0
5 *120:10 *121:8 7.56299e-05
6 *120:10 *144:58 0
7 *120:10 *162:8 0.000179542
8 *389:A1 *120:10 1.54008e-05
9 *73:95 *120:10 0
10 *94:14 *120:10 0.000209736
*RES
1 *395:Y *120:10 42.7398 
2 *120:10 *396:B1 40 
*END

*D_NET *121 0.000634274
*CONN
*I *397:A2 I *D sg13g2_a21oi_1
*I *396:Y O *D sg13g2_a21oi_1
*CAP
1 *397:A2 2.88647e-05
2 *396:Y 8.31304e-05
3 *121:8 0.000111995
4 *397:A2 *396:A1 0
5 *121:8 *144:58 0
6 *73:16 *121:8 0.000286753
7 *119:25 *397:A2 4.79014e-05
8 *120:10 *121:8 7.56299e-05
*RES
1 *396:Y *121:8 41.339 
2 *121:8 *397:A2 40.3193 
*END

*D_NET *122 0.00128113
*CONN
*I *398:A2 I *D sg13g2_o21ai_1
*I *397:Y O *D sg13g2_a21oi_1
*CAP
1 *398:A2 0.000488431
2 *397:Y 0.000488431
3 *398:A2 *398:A1 0.000143999
4 *398:A2 *165:10 0.000144866
5 *398:A2 *187:74 0
6 *391:B1 *398:A2 0
7 *391:A2 *398:A2 0
8 *398:B1 *398:A2 1.54008e-05
9 *402:A2 *398:A2 0
10 *433:D *398:A2 0
*RES
1 *397:Y *398:A2 44.8925 
*END

*D_NET *123 0.000942933
*CONN
*I *402:B1 I *D sg13g2_a221oi_1
*I *399:Y O *D sg13g2_nor2_1
*CAP
1 *402:B1 8.44437e-05
2 *399:Y 0.000376286
3 *123:14 0.000460729
4 *123:14 *126:8 2.14736e-05
5 *402:B2 *402:B1 0
6 *402:A2 *402:B1 0
7 *50:60 *123:14 0
8 *98:14 *123:14 0
*RES
1 *399:Y *123:14 43.5329 
2 *123:14 *402:B1 40.7519 
*END

*D_NET *124 0.00293887
*CONN
*I *401:A2 I *D sg13g2_o21ai_1
*I *407:A_N I *D sg13g2_nand2b_1
*I *400:Y O *D sg13g2_nand2_1
*CAP
1 *401:A2 0
2 *407:A_N 0.000558085
3 *400:Y 0.000436636
4 *124:10 0.000994721
5 *407:A_N *401:A1 1.54008e-05
6 *407:A_N *404:B1 0
7 *407:A_N *408:A1 0
8 *407:A_N *408:A2 8.00842e-05
9 *407:A_N *125:8 0.000129471
10 *407:A_N *144:47 8.00842e-05
11 *124:10 *401:A1 3.23417e-05
12 *124:10 *194:33 1.54008e-05
13 *401:B1 *407:A_N 1.54008e-05
14 *401:B1 *124:10 0.000533503
15 *403:A1 *407:A_N 4.77425e-05
16 *404:A2 *407:A_N 0
17 *50:52 *407:A_N 0
18 *76:6 *124:10 0
19 *102:26 *407:A_N 0
20 *102:26 *124:10 0
*RES
1 *400:Y *124:10 24.9749 
2 *124:10 *407:A_N 25.8916 
3 *124:10 *401:A2 20 
*END

*D_NET *125 0.00125247
*CONN
*I *402:C1 I *D sg13g2_a221oi_1
*I *408:A2 I *D sg13g2_o21ai_1
*I *401:Y O *D sg13g2_o21ai_1
*CAP
1 *402:C1 0
2 *408:A2 0.000275166
3 *401:Y 0.000142288
4 *125:8 0.000417454
5 *408:A2 *408:B1 1.54008e-05
6 *408:A2 *408:A1 0
7 *408:A2 *165:10 0
8 *408:A2 *187:74 0
9 *402:B2 *408:A2 1.54008e-05
10 *402:B2 *125:8 0.000177203
11 *407:A_N *408:A2 8.00842e-05
12 *407:A_N *125:8 0.000129471
*RES
1 *401:Y *125:8 21.751 
2 *125:8 *408:A2 22.7192 
3 *125:8 *402:C1 20 
*END

*D_NET *126 0.00068947
*CONN
*I *403:A2 I *D sg13g2_o21ai_1
*I *402:Y O *D sg13g2_a221oi_1
*CAP
1 *403:A2 5.38551e-05
2 *402:Y 0.000105846
3 *126:8 0.000159701
4 *403:B1 *403:A2 4.77425e-05
5 *403:A1 *403:A2 1.54008e-05
6 *50:60 *126:8 0.00028545
7 *123:14 *126:8 2.14736e-05
*RES
1 *402:Y *126:8 41.339 
2 *126:8 *403:A2 40.5356 
*END

*D_NET *127 0.00111162
*CONN
*I *404:B1 I *D sg13g2_o21ai_1
*I *403:Y O *D sg13g2_o21ai_1
*CAP
1 *404:B1 0.000171966
2 *403:Y 0.000180326
3 *127:10 0.000352291
4 *127:10 *144:58 0.000182936
5 *127:10 *187:74 0
6 *403:B1 *127:10 1.54008e-05
7 *404:A2 *404:B1 0.000208698
8 *404:A2 *127:10 0
9 *407:A_N *404:B1 0
10 *15:12 *404:B1 0
*RES
1 *403:Y *127:10 41.7248 
2 *127:10 *404:B1 41.751 
*END

*D_NET *128 0.00135888
*CONN
*I *410:B1 I *D sg13g2_o21ai_1
*I *405:Y O *D sg13g2_nand2_1
*CAP
1 *410:B1 5.70907e-05
2 *405:Y 7.47386e-05
3 *128:14 0.000216709
4 *128:8 0.000234357
5 *410:B1 *410:A2 1.84864e-05
6 *410:B1 *153:34 0
7 *128:8 *177:37 7.31655e-05
8 *128:8 *186:20 0
9 *128:8 *198:35 7.34121e-05
10 *128:14 *177:37 0.000278341
11 *405:A *410:B1 0
12 *26:14 *128:14 0.000310958
13 *28:8 *128:8 2.16263e-05
*RES
1 *405:Y *128:8 40.8446 
2 *128:8 *128:14 42.0497 
3 *128:14 *410:B1 40.8498 
*END

*D_NET *129 0.0030156
*CONN
*I *409:A1 I *D sg13g2_a21oi_1
*I *411:B1 I *D sg13g2_a21oi_1
*I *406:Y O *D sg13g2_nand3_1
*CAP
1 *409:A1 7.08836e-05
2 *411:B1 6.53014e-05
3 *406:Y 0.000121593
4 *129:31 0.000895677
5 *129:12 0.00101169
6 *409:A1 *323:A 0
7 *409:A1 *179:16 0
8 *411:B1 *157:40 0
9 *129:12 *157:40 0
10 *129:31 *187:74 0.00012767
11 *129:31 *194:52 0.000596343
12 *413:A2 *411:B1 0
13 *79:57 *129:12 0
14 *88:52 *411:B1 0
15 *102:12 *411:B1 7.4627e-05
16 *102:12 *129:12 5.18162e-05
*RES
1 *406:Y *129:12 41.236 
2 *129:12 *411:B1 40.6695 
3 *129:12 *129:31 49.785 
4 *129:31 *409:A1 40.7519 
*END

*D_NET *130 0.000335872
*CONN
*I *408:B1 I *D sg13g2_o21ai_1
*I *407:Y O *D sg13g2_nand2b_1
*CAP
1 *408:B1 0.000160235
2 *407:Y 0.000160235
3 *408:B1 *398:A1 0
4 *408:B1 *408:A1 0
5 *408:A2 *408:B1 1.54008e-05
*RES
1 *407:Y *408:B1 41.6274 
*END

*D_NET *131 0.00252649
*CONN
*I *409:A2 I *D sg13g2_a21oi_1
*I *408:Y O *D sg13g2_o21ai_1
*CAP
1 *409:A2 0
2 *408:Y 0.000234312
3 *131:8 0.000234312
4 *131:8 *323:B 0.000972731
5 *46:45 *131:8 0.00108513
*RES
1 *408:Y *131:8 45.047 
2 *131:8 *409:A2 40 
*END

*D_NET *132 0.00202318
*CONN
*I *410:A2 I *D sg13g2_o21ai_1
*I *409:Y O *D sg13g2_a21oi_1
*CAP
1 *410:A2 5.67689e-05
2 *409:Y 0.000307861
3 *132:10 0.00036463
4 *410:A2 *410:A1 0.000122068
5 *410:A2 *153:34 0
6 *132:10 *174:10 0
7 *132:10 *179:16 0.000111261
8 *132:10 *198:50 0.000545919
9 *132:10 *198:67 0.000105719
10 *410:B1 *410:A2 1.84864e-05
11 *101:31 *410:A2 0
12 *101:31 *132:10 0.000390471
*RES
1 *409:Y *132:10 44.0376 
2 *132:10 *410:A2 41.0609 
*END

*D_NET *133 0.0011143
*CONN
*I *412:B I *D sg13g2_nor2_1
*I *413:B1 I *D sg13g2_a221oi_1
*I *411:Y O *D sg13g2_a21oi_1
*CAP
1 *412:B 0.00031106
2 *413:B1 0
3 *411:Y 0.000194694
4 *133:8 0.000505755
5 *412:B *413:C1 0.000102787
6 *412:B *187:28 0
7 *133:8 *413:C1 0
8 *412:A *412:B 0
9 *437:D *412:B 0
*RES
1 *411:Y *133:8 21.9982 
2 *133:8 *413:B1 20 
3 *133:8 *412:B 23.2136 
*END

*D_NET *134 0.0011261
*CONN
*I *413:C1 I *D sg13g2_a221oi_1
*I *412:Y O *D sg13g2_nor2_1
*CAP
1 *413:C1 0.000415717
2 *412:Y 0.000415717
3 *413:C1 *157:40 7.9841e-05
4 *412:A *413:C1 0
5 *412:B *413:C1 0.000102787
6 *437:D *413:C1 0.000112036
7 *46:18 *413:C1 0
8 *133:8 *413:C1 0
*RES
1 *412:Y *413:C1 44.5629 
*END

*D_NET *135 0.00191771
*CONN
*I *416:B1 I *D sg13g2_o21ai_1
*I *415:Y O *D sg13g2_nand2_1
*CAP
1 *416:B1 0.000346976
2 *415:Y 8.59693e-05
3 *135:8 0.000432946
4 *416:B1 *416:A2 0.000533695
5 *416:B1 *137:10 0
6 *135:8 *501:A 0.000178794
7 *29:8 *135:8 0
8 *65:10 *416:B1 0.000339327
*RES
1 *415:Y *135:8 40.8446 
2 *135:8 *416:B1 43.9964 
*END

*D_NET *136 0.0048645
*CONN
*I *418:B1 I *D sg13g2_o21ai_1
*I *417:Y O *D sg13g2_nand2_1
*CAP
1 *418:B1 0
2 *417:Y 0.000638523
3 *136:20 0.000172002
4 *136:12 0.00110298
5 *136:8 0.0015695
6 *136:8 *416:A1 0.000533167
7 *136:8 *417:B 0
8 *136:8 *512:A 7.21305e-05
9 *136:8 *137:10 0.000209703
10 *136:8 *144:14 9.72443e-05
11 *136:8 *157:10 0
12 *136:8 *179:28 0.000241626
13 *136:8 *182:41 0
14 *136:8 *188:30 0
15 *136:12 *178:10 0
16 *136:12 *178:20 0.00021223
17 *136:12 *188:22 0
18 *136:20 *168:12 0
19 *136:20 *206:35 0
20 *27:10 *136:12 0
21 *40:32 *136:12 0
22 *40:40 *136:20 1.54008e-05
23 *41:16 *136:12 0
*RES
1 *417:Y *136:8 46.592 
2 *136:8 *136:12 27.6796 
3 *136:12 *136:20 41.303 
4 *136:20 *418:B1 20 
*END

*D_NET *137 0.00430549
*CONN
*I *420:B1 I *D sg13g2_o21ai_1
*I *419:Y O *D sg13g2_nand2_1
*CAP
1 *420:B1 0
2 *419:Y 0.00107579
3 *137:18 0.00018107
4 *137:10 0.00125686
5 *137:10 *439:RESET_B 0.000436683
6 *137:10 *160:10 0.000274545
7 *137:10 *179:28 0.000209344
8 *137:10 *180:26 0
9 *137:10 *185:30 8.0142e-05
10 *137:10 *188:30 0.000468658
11 *137:10 *189:57 0
12 *137:18 *153:27 0
13 *137:18 *185:30 0
14 *137:18 *188:16 0
15 *416:B1 *137:10 0
16 *420:A1 *137:18 0
17 *6:11 *137:10 0
18 *30:18 *137:10 0
19 *30:18 *137:18 0.000112689
20 *136:8 *137:10 0.000209703
*RES
1 *419:Y *137:10 31.061 
2 *137:10 *137:18 41.5965 
3 *137:18 *420:B1 20 
*END

*D_NET *138 0.00149509
*CONN
*I *422:B1 I *D sg13g2_o21ai_1
*I *421:Y O *D sg13g2_nand2_1
*CAP
1 *422:B1 8.22485e-05
2 *421:Y 0.000172288
3 *138:10 0.000254536
4 *422:B1 *422:A2 1.54008e-05
5 dac_code_n[0] *138:10 0.000451189
6 dac_code_n[2] *422:B1 0
7 *18:8 *138:10 0.000504026
8 *68:10 *422:B1 1.54008e-05
*RES
1 *421:Y *138:10 42.8634 
2 *138:10 *422:B1 40.7519 
*END

*D_NET *139 0.00170486
*CONN
*I *424:B1 I *D sg13g2_o21ai_1
*I *423:Y O *D sg13g2_nand2_1
*CAP
1 *424:B1 0
2 *423:Y 0.00051616
3 *139:12 0.00051616
4 *139:12 *435:CLK 0
5 *139:12 *185:16 0.000283069
6 *139:12 *189:49 0
7 *392:A *139:12 0.000389473
8 *44:8 *139:12 0
9 *44:29 *139:12 0
*RES
1 *423:Y *139:12 45.0367 
2 *139:12 *424:B1 40 
*END

*D_NET *140 0.000970068
*CONN
*I *426:B1 I *D sg13g2_o21ai_1
*I *425:Y O *D sg13g2_nand2_1
*CAP
1 *426:B1 0.000405176
2 *425:Y 0.000405176
3 *426:B1 *426:A2 1.54556e-05
4 *426:B1 *185:16 0.000144261
5 *426:B1 *190:41 0
6 *426:B1 *198:87 0
7 *444:D *426:B1 0
*RES
1 *425:Y *426:B1 44.2178 
*END

*D_NET *141 0.00130748
*CONN
*I *428:B1 I *D sg13g2_o21ai_1
*I *427:Y O *D sg13g2_nand2_1
*CAP
1 *428:B1 4.27485e-05
2 *427:Y 0.000251259
3 *141:10 0.000294008
4 *428:B1 *428:A2 8.01445e-05
5 *428:B1 *206:12 8.02379e-05
6 *141:10 *188:14 0.000511267
7 *141:10 *189:51 0
8 *32:26 *141:10 4.78195e-05
*RES
1 *427:Y *141:10 42.7707 
2 *141:10 *428:B1 40.5356 
*END

*D_NET *142 0.000984416
*CONN
*I *351:A1 I *D sg13g2_a22oi_1
*I *315:Y O *D sg13g2_inv_1
*CAP
1 *351:A1 0.000169179
2 *315:Y 3.84786e-05
3 *142:8 0.000207657
4 *351:A1 *343:C 0
5 *351:A1 *196:17 0
6 *142:8 *209:48 0.000180387
7 *83:21 *351:A1 0.000208327
8 *90:8 *142:8 0.000180387
*RES
1 *315:Y *142:8 40.8446 
2 *142:8 *351:A1 41.6171 
*END

*D_NET *143 0.00144975
*CONN
*I *351:B2 I *D sg13g2_a22oi_1
*I *334:A I *D sg13g2_or3_1
*I *316:Y O *D sg13g2_inv_1
*CAP
1 *351:B2 8.98833e-05
2 *334:A 0
3 *316:Y 6.58296e-05
4 *143:14 0.000313972
5 *143:8 0.000469685
6 *143:8 *152:68 0
7 *143:8 *210:23 0.000176239
8 *143:14 *211:50 0.000147772
9 *50:44 *143:14 0.000113206
10 *72:10 *143:8 7.31628e-05
11 *79:14 *143:14 0
*RES
1 *316:Y *143:8 40.8446 
2 *143:8 *143:14 43.5638 
3 *143:14 *334:A 40 
4 *143:8 *351:B2 40.7519 
*END

*D_NET *144 0.0107898
*CONN
*I *399:A I *D sg13g2_nor2_1
*I *388:A1 I *D sg13g2_mux2_1
*I *395:A2 I *D sg13g2_a21oi_1
*I *407:B I *D sg13g2_nand2b_1
*I *416:A1 I *D sg13g2_o21ai_1
*I *318:Y O *D sg13g2_inv_1
*CAP
1 *399:A 0.000104669
2 *388:A1 3.05992e-05
3 *395:A2 0.000181578
4 *407:B 0
5 *416:A1 0.00065731
6 *318:Y 0.000269449
7 *144:62 0.000359537
8 *144:58 0.001021
9 *144:47 0.000294499
10 *144:37 0.00135589
11 *144:33 0.00109446
12 *144:14 0.0015282
13 *144:10 0.000338299
14 *399:A *401:A1 0
15 *399:A *171:14 0
16 *416:A1 *416:A2 1.54556e-05
17 *416:A1 *432:CLK 0
18 *416:A1 *439:RESET_B 0
19 *416:A1 *511:B 0
20 *416:A1 *512:A 7.21305e-05
21 *416:A1 *512:B 0
22 *416:A1 *153:34 0
23 *416:A1 *198:35 0
24 *144:10 *318:A 0
25 *144:10 *417:B 0
26 *144:10 *203:12 0
27 *144:14 *511:B 0
28 *144:14 *512:B 0
29 *144:33 *171:14 0
30 *144:33 *182:41 0
31 *144:33 *194:52 0.00018022
32 *144:33 *197:8 0.000333742
33 *144:33 *198:21 0.000236521
34 *144:37 *163:33 0.000100885
35 *144:47 *323:B 0.000338264
36 *144:47 *408:A1 1.54008e-05
37 *144:47 *163:33 5.09528e-05
38 *144:47 *187:74 0
39 *144:58 *323:A 0.000179945
40 *144:58 *323:B 0
41 *144:58 *162:8 0
42 *144:58 *165:10 0.000688183
43 *144:58 *187:74 0
44 *144:58 *191:94 0
45 *381:B1 *144:33 0
46 *385:B1 *399:A 0
47 *385:B1 *144:33 0
48 *388:A0 *144:62 0.000112454
49 *388:S *395:A2 0
50 *388:S *144:62 0
51 *389:A2 *395:A2 0
52 *407:A_N *144:47 8.00842e-05
53 *481:A *416:A1 0
54 *15:16 *144:37 0.000150131
55 *15:16 *144:47 0.000186565
56 *20:8 *144:58 0
57 *41:12 *144:10 0
58 *41:12 *144:33 0
59 *73:16 *144:58 0
60 *73:22 *144:58 0
61 *73:68 *144:33 0
62 *94:14 *395:A2 0
63 *102:26 *399:A 0
64 *102:49 *144:33 0
65 *115:8 *144:58 0
66 *120:10 *395:A2 0
67 *120:10 *144:58 0
68 *121:8 *144:58 0
69 *127:10 *144:58 0.000182936
70 *136:8 *416:A1 0.000533167
71 *136:8 *144:14 9.72443e-05
*RES
1 *318:Y *144:10 42.5235 
2 *144:10 *144:14 20.7519 
3 *144:14 *416:A1 26.3913 
4 *144:14 *144:33 27.7662 
5 *144:33 *144:37 22.266 
6 *144:37 *144:47 43.3063 
7 *144:47 *407:B 20 
8 *144:37 *144:58 49.2494 
9 *144:58 *144:62 1.7819 
10 *144:62 *395:A2 21.751 
11 *144:62 *388:A1 20.3193 
12 *144:33 *399:A 40.9167 
*END

*D_NET *145 0.000766674
*CONN
*I *414:B2 I *D sg13g2_a22oi_1
*I *319:Y O *D sg13g2_inv_1
*CAP
1 *414:B2 0.000156579
2 *319:Y 0.000202807
3 *145:8 0.000359386
4 *414:B2 *155:6 0
5 *360:A *145:8 0
6 *38:8 *145:8 0
7 *64:10 *414:B2 4.79014e-05
8 *100:17 *414:B2 0
*RES
1 *319:Y *145:8 42.3278 
2 *145:8 *414:B2 41.4008 
*END

*D_NET *146 0.00155046
*CONN
*I *351:A2 I *D sg13g2_a22oi_1
*I *353:A2 I *D sg13g2_a22oi_1
*I *325:Y O *D sg13g2_nor2b_1
*CAP
1 *351:A2 0
2 *353:A2 0.000170312
3 *325:Y 0
4 *146:17 9.74518e-05
5 *146:4 0.000267764
6 *353:A2 *196:36 1.54008e-05
7 *353:A2 *196:40 0.000274359
8 *146:17 *196:21 0.000176399
9 *146:17 *196:36 0.000159096
10 *146:17 *210:23 0.000389677
11 *450:D *353:A2 0
*RES
1 *325:Y *146:4 20 
2 *146:4 *353:A2 21.8334 
3 *146:4 *146:17 41.8334 
4 *146:17 *351:A2 20 
*END

*D_NET *147 0.00149185
*CONN
*I *327:A I *D sg13g2_inv_1
*I *326:Y O *D sg13g2_nand3b_1
*CAP
1 *327:A 4.30563e-05
2 *326:Y 0.000662829
3 *147:8 0.000705885
4 *327:A *477:A 8.00842e-05
5 *327:A *203:12 0
6 *147:8 *152:68 0
7 *147:8 *199:45 0
8 *375:A1 *147:8 0
*RES
1 *326:Y *147:8 47.2718 
2 *147:8 *327:A 40.5356 
*END

*D_NET *148 0.00332536
*CONN
*I *365:B I *D sg13g2_nand4_1
*I *353:B1 I *D sg13g2_a22oi_1
*I *342:B I *D sg13g2_nand3_1
*I *330:B I *D sg13g2_nand2_1
*I *328:Y O *D sg13g2_nor2_1
*CAP
1 *365:B 0
2 *353:B1 0.000201568
3 *342:B 0.000122214
4 *330:B 3.96464e-05
5 *328:Y 0.000115427
6 *148:25 0.00076939
7 *148:12 0.000568118
8 *148:8 0.00019829
9 *330:B *330:A 0
10 *342:B *176:58 7.52149e-05
11 *342:B *196:57 0.000181192
12 *342:B *199:45 0
13 *353:B1 *353:A1 4.77425e-05
14 *353:B1 *176:14 0
15 *148:8 *150:10 0
16 *148:12 *150:10 0
17 *148:12 *196:70 0.00018128
18 *148:25 *156:12 0
19 *148:25 *187:10 0
20 *148:25 *187:14 0
21 *148:25 *196:57 0.00055109
22 *88:6 *353:B1 0.000274189
23 *96:8 *148:12 0
24 *96:8 *148:25 0
*RES
1 *328:Y *148:8 41.339 
2 *148:8 *148:12 21.0918 
3 *148:12 *330:B 20.3193 
4 *148:12 *148:25 24.6865 
5 *148:25 *342:B 41.339 
6 *148:25 *353:B1 42.0497 
7 *148:8 *365:B 40 
*END

*D_NET *149 0.00253562
*CONN
*I *364:A I *D sg13g2_nand2_1
*I *472:A I *D sg13g2_buf_1
*I *452:Q O *D sg13g2_dfrbpq_1
*CAP
1 *364:A 0.000205109
2 *472:A 3.30115e-05
3 *452:Q 0.000457123
4 *149:10 0.000695244
5 *364:A *195:8 0
6 *472:A *363:A 0.000182109
7 *472:A *471:A 0.000182109
8 *149:10 *363:A 5.30319e-05
9 *149:10 *471:A 0.000340704
10 *149:10 *151:10 0.000209779
11 *365:D *364:A 0.000129487
12 *365:D *149:10 0
13 *383:A2 *364:A 0
14 *73:10 *364:A 0
15 *94:8 *364:A 0
16 *95:6 *364:A 4.79124e-05
*RES
1 *452:Q *149:10 45.6753 
2 *149:10 *472:A 40.8446 
3 *149:10 *364:A 42.0497 
*END

*D_NET *150 0.00848613
*CONN
*I *471:A I *D sg13g2_buf_1
*I *368:A2 I *D sg13g2_o21ai_1
*I *393:A I *D sg13g2_nor2b_1
*I *366:A1 I *D sg13g2_a22oi_1
*I *453:Q O *D sg13g2_dfrbpq_1
*CAP
1 *471:A 0.000333734
2 *368:A2 0
3 *393:A 0.000384651
4 *366:A1 0.000314524
5 *453:Q 0.000491184
6 *150:35 0.000698939
7 *150:29 0.00109483
8 *150:10 0.00125251
9 *366:A1 *204:10 0
10 *393:A *368:B1 4.77425e-05
11 *393:A *192:14 0.00024211
12 *393:A *195:68 0.000565713
13 *471:A *363:A 0
14 *471:A *194:25 0
15 *471:A *195:12 0.000106151
16 *150:10 *464:A 0.000209856
17 *150:29 *454:RESET_B 0
18 *150:29 *199:47 0
19 *150:35 *194:25 0
20 *150:35 *195:12 0.000607002
21 *150:35 *195:18 7.48209e-05
22 *150:35 *195:62 3.23417e-05
23 *150:35 *195:68 1.54008e-05
24 *365:D *150:10 0
25 *366:B1 *366:A1 0
26 *394:B *393:A 0
27 *454:D *150:29 0
28 *472:A *471:A 0.000182109
29 *50:52 *150:35 0
30 *73:6 *150:29 0.000259183
31 *73:10 *150:29 0.000500743
32 *73:108 *366:A1 0
33 *79:47 *366:A1 0
34 *96:8 *366:A1 0.000444118
35 *96:8 *150:10 0.000287759
36 *97:10 *366:A1 0
37 *98:6 *393:A 0
38 *98:14 *393:A 0
39 *148:8 *150:10 0
40 *148:12 *150:10 0
41 *149:10 *471:A 0.000340704
*RES
1 *453:Q *150:10 46.1079 
2 *150:10 *366:A1 43.6771 
3 *150:10 *150:29 45.0779 
4 *150:29 *150:35 23.605 
5 *150:35 *393:A 23.9964 
6 *150:35 *368:A2 20 
7 *150:29 *471:A 43.6359 
*END

*D_NET *151 0.0035011
*CONN
*I *387:A I *D sg13g2_nor2_1
*I *395:A1 I *D sg13g2_a21oi_1
*I *470:A I *D sg13g2_buf_1
*I *394:A I *D sg13g2_nand2_1
*I *454:Q O *D sg13g2_dfrbpq_1
*CAP
1 *387:A 0
2 *395:A1 0
3 *470:A 0.0001929
4 *394:A 0.000231964
5 *454:Q 0.000633279
6 *151:14 0.000587135
7 *151:12 0.00030533
8 *151:10 0.000776338
9 *394:A *171:14 0
10 *470:A *152:8 0
11 *151:10 *364:B 0
12 *151:10 *162:8 0
13 *151:10 *171:8 0.000177339
14 *151:10 *171:14 0
15 *151:10 *194:21 0
16 *151:12 *162:8 0
17 *151:12 *171:14 0
18 *151:14 *162:8 0
19 *151:14 *171:14 0
20 *365:D *151:10 0
21 *387:B *151:10 0
22 *394:B *470:A 0
23 *479:A *151:10 8.03692e-05
24 *73:10 *470:A 0.000306662
25 *73:16 *394:A 0
26 *73:95 *151:14 0
27 *95:6 *151:10 0
28 *119:25 *394:A 0
29 *149:10 *151:10 0.000209779
*RES
1 *454:Q *151:10 46.8495 
2 *151:10 *151:12 1.339 
3 *151:12 *151:14 1.339 
4 *151:14 *394:A 42.0806 
5 *151:14 *470:A 42.0497 
6 *151:12 *395:A1 40 
7 *151:10 *387:A 40 
*END

*D_NET *152 0.00838946
*CONN
*I *461:A I *D sg13g2_buf_16
*I *460:A I *D sg13g2_buf_16
*I *459:A I *D sg13g2_buf_16
*I *458:A I *D sg13g2_buf_16
*I *457:X O *D sg13g2_buf_16
*CAP
1 *461:A 0
2 *460:A 0.00010213
3 *459:A 0.000131801
4 *458:A 6.1377e-05
5 *457:X 7.12296e-05
6 *152:68 0.0010615
7 *152:62 0.00202173
8 *152:55 0.00106236
9 *152:53 0
10 *152:37 0.000353245
11 *152:19 0.000210575
12 *152:17 0.00174258
13 *152:10 0.00137193
14 *152:8 7.12296e-05
15 *458:A *494:A 0
16 *459:A *162:32 0
17 *459:A *190:41 0
18 *152:8 *195:68 0.00011236
19 *152:17 *176:34 0
20 *152:17 *204:14 0
21 *152:17 *204:22 0
22 *152:19 *154:12 0
23 *152:19 *183:10 0
24 *152:19 *183:18 0
25 *152:37 *154:12 0
26 *152:37 *162:32 0
27 *152:37 *183:10 0
28 *152:37 *190:41 0
29 *152:62 *176:34 0
30 *152:62 *190:12 0
31 *152:62 *204:14 0
32 *152:68 *209:23 0
33 *152:68 *209:29 0
34 *152:68 *209:35 0
35 *152:68 *210:17 0
36 *152:68 *210:23 0
37 *152:68 *211:50 0
38 *470:A *152:8 0
39 *20:12 *152:17 0
40 *51:8 *152:68 0
41 *72:10 *152:68 0
42 *98:27 *152:8 1.54008e-05
43 *143:8 *152:68 0
44 *147:8 *152:68 0
*RES
1 *457:X *152:8 40.7519 
2 *152:8 *152:10 20 
3 *152:10 *152:17 34.8114 
4 *152:17 *152:19 1.339 
5 *152:19 *458:A 40.5356 
6 *152:17 *152:37 21.8437 
7 *152:37 *459:A 21.1845 
8 *457:X *152:53 40 
9 *152:53 *152:55 20 
10 *152:55 *152:62 31.3506 
11 *152:62 *152:68 27.4984 
12 *152:68 *460:A 20.9682 
13 *152:62 *461:A 40 
*END

*D_NET *153 0.0115892
*CONN
*I *446:CLK I *D sg13g2_dfrbpq_1
*I *455:CLK I *D sg13g2_dfrbpq_1
*I *440:CLK I *D sg13g2_dfrbpq_1
*I *441:CLK I *D sg13g2_dfrbpq_1
*I *432:CLK I *D sg13g2_dfrbpq_1
*I *436:CLK I *D sg13g2_dfrbpq_1
*I *439:CLK I *D sg13g2_dfrbpq_1
*I *462:A I *D sg13g2_inv_1
*I *458:X O *D sg13g2_buf_16
*CAP
1 *446:CLK 0.000536484
2 *455:CLK 0.000333118
3 *440:CLK 0.000153626
4 *441:CLK 0
5 *432:CLK 0.000388072
6 *436:CLK 0
7 *439:CLK 0
8 *462:A 0
9 *458:X 0
10 *153:65 0.000753522
11 *153:40 0.000470952
12 *153:34 0.00106685
13 *153:27 0.000647321
14 *153:18 0.000672904
15 *153:12 0.000272872
16 *153:8 0.000664641
17 *153:6 0.000894881
18 *432:CLK *410:A1 0.000241166
19 *432:CLK *512:B 0
20 *432:CLK *193:10 0.000176657
21 *432:CLK *198:35 0.000176405
22 *440:CLK *339:A 7.33256e-05
23 *440:CLK *167:22 3.86119e-05
24 *446:CLK *163:64 0.000336746
25 *446:CLK *167:26 0
26 *455:CLK *339:A 0.000106064
27 *455:CLK *197:38 0.000338585
28 *455:CLK *205:8 0.000179386
29 *153:8 *167:26 0
30 *153:8 *197:101 0.000419195
31 *153:12 *197:101 7.30101e-05
32 *153:18 *167:22 0
33 *153:18 *206:12 1.54556e-05
34 *153:18 *206:20 0.000230195
35 *153:27 *415:A 0.000185227
36 *153:27 *416:A2 0
37 *153:27 *503:A 0
38 *153:27 *206:12 0
39 *153:27 *206:51 0
40 *153:34 *410:A1 1.54008e-05
41 *153:34 *416:A2 0
42 *153:40 *408:A1 0
43 *153:40 *164:12 0
44 *153:40 *203:16 0
45 result[0] *455:CLK 0
46 *311:A *153:27 0.000269259
47 *376:B *432:CLK 0
48 *405:A *153:34 0
49 *410:B1 *153:34 0
50 *410:A2 *153:34 0
51 *416:A1 *432:CLK 0
52 *416:A1 *153:34 0
53 *420:A1 *153:27 0
54 *428:A1 *153:27 0
55 *428:A1 *153:34 0
56 *445:D *153:18 0
57 *9:10 *446:CLK 0
58 *9:10 *153:8 0
59 *10:14 *440:CLK 2.14736e-05
60 *10:14 *455:CLK 0.000283647
61 *28:12 *153:65 0
62 *30:18 *153:27 0
63 *32:26 *455:CLK 0.000177109
64 *32:26 *153:18 0
65 *34:27 *446:CLK 0
66 *36:15 *153:65 0.000508694
67 *40:26 *432:CLK 0
68 *47:10 *153:8 0
69 *78:10 *153:8 0
70 *101:23 *432:CLK 0.000209016
71 *101:31 *153:40 0.000659311
72 *137:18 *153:27 0
*RES
1 *458:X *153:6 40 
2 *153:6 *153:8 3.5638 
3 *153:8 *153:12 20.3502 
4 *153:12 *153:18 2.5338 
5 *153:18 *462:A 20 
6 *153:18 *153:27 4.5938 
7 *153:27 *439:CLK 20 
8 *153:27 *153:34 2.266 
9 *153:34 *153:40 44.7998 
10 *153:40 *436:CLK 20 
11 *153:34 *432:CLK 24.3466 
12 *153:12 *441:CLK 20 
13 *153:8 *153:65 43.3475 
14 *153:65 *440:CLK 41.4523 
15 *153:65 *455:CLK 44.2539 
16 *153:6 *446:CLK 44.841 
*END

*D_NET *154 0.00923108
*CONN
*I *443:CLK I *D sg13g2_dfrbpq_1
*I *433:CLK I *D sg13g2_dfrbpq_1
*I *434:CLK I *D sg13g2_dfrbpq_1
*I *444:CLK I *D sg13g2_dfrbpq_1
*I *442:CLK I *D sg13g2_dfrbpq_1
*I *463:A I *D sg13g2_inv_1
*I *435:CLK I *D sg13g2_dfrbpq_1
*I *445:CLK I *D sg13g2_dfrbpq_1
*I *459:X O *D sg13g2_buf_16
*CAP
1 *443:CLK 0
2 *433:CLK 0.000245138
3 *434:CLK 0
4 *444:CLK 0
5 *442:CLK 0.00040024
6 *463:A 0
7 *435:CLK 0.000185562
8 *445:CLK 0
9 *459:X 0.000287066
10 *154:65 0.000747775
11 *154:59 0.000662883
12 *154:45 0.000560486
13 *154:24 0.00041273
14 *154:18 0.000951953
15 *154:12 0.000863448
16 *154:10 0.000796854
17 *433:CLK *162:32 0
18 *433:CLK *191:90 0
19 *435:CLK *423:B 8.01776e-05
20 *435:CLK *189:49 0.000161801
21 *442:CLK *469:A 0
22 *154:12 *167:26 0
23 *154:12 *183:10 0
24 *154:12 *190:41 0
25 *154:18 *423:B 1.54008e-05
26 *154:18 *494:A 0.000208956
27 *154:18 *167:26 0
28 *154:18 *183:18 0
29 *154:24 *167:26 0
30 *154:24 *174:22 0
31 *154:24 *181:16 0.00018168
32 *154:24 *189:49 0
33 *154:59 *189:10 0
34 *154:65 *496:A 0
35 *154:65 *162:32 0.000241313
36 *154:65 *189:8 0
37 *154:65 *189:10 0
38 *154:65 *189:105 0
39 *154:65 *191:90 0
40 hold *442:CLK 0.000566174
41 *17:10 *154:10 0.000307057
42 *25:12 *442:CLK 4.77425e-05
43 *25:12 *154:10 5.30319e-05
44 *25:12 *154:12 7.51285e-05
45 *25:12 *154:59 0.000274028
46 *25:12 *154:65 0
47 *34:27 *435:CLK 0.000323696
48 *34:27 *154:18 0.000273699
49 *42:18 *154:10 0.000307057
50 *139:12 *435:CLK 0
51 *152:19 *154:12 0
52 *152:37 *154:12 0
*RES
1 *459:X *154:10 43.3887 
2 *154:10 *154:12 4.0582 
3 *154:12 *154:18 23.6668 
4 *154:18 *154:24 43.5638 
5 *154:24 *445:CLK 20 
6 *154:18 *435:CLK 22.266 
7 *154:12 *463:A 40 
8 *154:10 *154:45 20 
9 *154:45 *442:CLK 23.9964 
10 *154:45 *444:CLK 20 
11 *154:45 *154:59 1.8334 
12 *154:59 *154:65 4.4152 
13 *154:65 *434:CLK 20 
14 *154:65 *433:CLK 22.266 
15 *154:59 *443:CLK 20 
*END

*D_NET *155 0.00636454
*CONN
*I *430:CLK I *D sg13g2_dfrbpq_1
*I *317:A I *D sg13g2_inv_1
*I *431:CLK I *D sg13g2_dfrbpq_1
*I *437:CLK I *D sg13g2_dfrbpq_1
*I *451:CLK I *D sg13g2_dfrbpq_1
*I *438:CLK I *D sg13g2_dfrbpq_1
*I *429:A I *D sg13g2_inv_1
*I *460:X O *D sg13g2_buf_16
*CAP
1 *430:CLK 0
2 *317:A 0
3 *431:CLK 0.000426585
4 *437:CLK 0
5 *451:CLK 0.000237804
6 *438:CLK 0
7 *429:A 0
8 *460:X 0.000515214
9 *155:72 0.000216511
10 *155:52 0.000677969
11 *155:46 0.000710241
12 *155:42 0.000585374
13 *155:21 0.000423704
14 *155:12 0.000389137
15 *155:6 0.000747222
16 *431:CLK *477:A 0
17 *431:CLK *187:45 0
18 *155:6 *200:20 0
19 *155:12 *371:A 6.61705e-05
20 *155:12 *193:39 0.000157909
21 *155:12 *202:8 0
22 *155:21 *200:20 0
23 *155:42 *456:RESET_B 0
24 *155:52 *477:A 0
25 *155:72 *199:28 0
26 *360:A *451:CLK 0.000218839
27 *360:A *155:21 0.000144466
28 *360:B *451:CLK 0
29 *374:A1 *431:CLK 0
30 *374:A1 *155:52 0
31 *374:A2 *155:46 0
32 *375:A2 *155:46 1.69409e-05
33 *375:A1 *155:46 0
34 *375:B1 *155:42 0
35 *375:B1 *155:46 0
36 *414:B2 *155:6 0
37 *414:A2 *451:CLK 0.000209697
38 *414:A2 *155:6 1.54008e-05
39 *414:A2 *155:21 0.000209114
40 *56:8 *155:72 0
41 *84:10 *155:12 0
42 *100:17 *155:42 0
43 *100:17 *155:46 0
44 *101:6 *431:CLK 0.000242313
45 *102:73 *155:52 0.000153931
*RES
1 *460:X *155:6 21.6171 
2 *155:6 *155:12 44.0582 
3 *155:12 *429:A 20 
4 *155:6 *155:21 2.1836 
5 *155:21 *438:CLK 20 
6 *155:21 *451:CLK 22.6162 
7 *460:X *155:42 23.5638 
8 *155:42 *155:46 2.4308 
9 *155:46 *155:52 2.7192 
10 *155:52 *437:CLK 20 
11 *155:52 *431:CLK 24.3466 
12 *155:46 *155:72 42.0806 
13 *155:72 *317:A 20 
14 *155:42 *430:CLK 20 
*END

*D_NET *156 0.0048741
*CONN
*I *464:A I *D sg13g2_inv_1
*I *448:CLK I *D sg13g2_dfrbpq_1
*I *447:CLK I *D sg13g2_dfrbpq_1
*I *449:CLK I *D sg13g2_dfrbpq_1
*I *450:CLK I *D sg13g2_dfrbpq_1
*I *453:CLK I *D sg13g2_dfrbpq_1
*I *452:CLK I *D sg13g2_dfrbpq_1
*I *454:CLK I *D sg13g2_dfrbpq_1
*I *461:X O *D sg13g2_buf_16
*CAP
1 *464:A 0.000338188
2 *448:CLK 0.000282034
3 *447:CLK 0
4 *449:CLK 0
5 *450:CLK 0
6 *453:CLK 0
7 *452:CLK 0
8 *454:CLK 0.000231678
9 *461:X 0.000533521
10 *156:45 0.000447572
11 *156:38 0.000372114
12 *156:12 0.000661819
13 *156:10 0.000775384
14 *156:8 0.000747153
15 *448:CLK *200:54 0
16 *448:CLK *210:6 0
17 *464:A *328:A 0
18 *156:8 *209:12 0.000274781
19 *156:10 *328:B 0
20 *156:10 *447:RESET_B 0
21 *156:10 *209:12 0
22 *156:12 *328:B 0
23 *156:12 *199:47 0
24 *156:38 *447:RESET_B 0
25 *156:38 *209:12 0
26 *156:45 *447:RESET_B 0
27 *156:45 *209:12 0
28 *156:45 *210:6 0
29 *365:C *454:CLK 0
30 *365:C *156:12 0
31 *73:6 *454:CLK 0
32 *73:6 *156:12 0
33 *73:10 *454:CLK 0
34 *88:20 *156:12 0
35 *148:25 *156:12 0
36 *150:10 *464:A 0.000209856
*RES
1 *461:X *156:8 23.1724 
2 *156:8 *156:10 3.8116 
3 *156:10 *156:12 3.9964 
4 *156:12 *454:CLK 22.1836 
5 *156:12 *452:CLK 20 
6 *156:10 *453:CLK 20 
7 *156:8 *450:CLK 20 
8 *156:8 *156:38 2.266 
9 *156:38 *449:CLK 20 
10 *156:38 *156:45 1.8334 
11 *156:45 *447:CLK 20 
12 *156:45 *448:CLK 23.3578 
13 *461:X *464:A 43.6977 
*END

*D_NET *157 0.00707043
*CONN
*I *512:B I *D sg13g2_nand2_1
*I *382:B I *D sg13g2_and3_1
*I *413:B2 I *D sg13g2_a221oi_1
*I *378:A1 I *D sg13g2_a21oi_1
*I *318:A I *D sg13g2_inv_1
*I *511:Y O *D sg13g2_nand2_1
*CAP
1 *512:B 0.000482058
2 *382:B 0.0001431
3 *413:B2 0
4 *378:A1 0
5 *318:A 0.000219012
6 *511:Y 0
7 *157:40 0.000643225
8 *157:27 0.000669107
9 *157:23 0.000498574
10 *157:10 0.000725345
11 *157:4 0.000658798
12 *318:A *417:B 4.77425e-05
13 *318:A *182:41 0
14 *318:A *203:12 0
15 *382:B *171:14 0
16 *512:B *511:B 0.000500589
17 *512:B *171:14 8.0342e-05
18 *512:B *187:51 0
19 *512:B *193:10 0
20 *157:10 *182:41 8.00842e-05
21 *157:10 *187:51 0
22 *157:23 *182:41 0
23 *157:40 *373:A 0
24 *157:40 *382:A 0
25 *380:B1 *157:10 0.000177043
26 *381:A2 *382:B 4.77425e-05
27 *411:A2 *157:40 0
28 *411:B1 *157:40 0
29 *413:C1 *157:40 7.9841e-05
30 *413:A2 *157:40 0
31 *416:A1 *512:B 0
32 *432:CLK *512:B 0
33 *46:18 *157:40 0.000242203
34 *57:8 *318:A 0
35 *74:25 *157:27 1.54008e-05
36 *74:25 *157:40 0.000485629
37 *74:33 *157:23 0.000494749
38 *74:33 *157:27 4.77425e-05
39 *75:12 *157:40 0
40 *75:18 *382:B 0.000236019
41 *102:12 *157:40 0
42 *102:26 *157:40 0
43 *106:8 *382:B 0
44 *106:8 *157:23 0
45 *107:12 *157:23 0.000496082
46 *129:12 *157:40 0
47 *136:8 *157:10 0
48 *144:10 *318:A 0
49 *144:14 *512:B 0
*RES
1 *511:Y *157:4 20 
2 *157:4 *157:10 21.9673 
3 *157:10 *318:A 41.9055 
4 *157:10 *157:23 4.0582 
5 *157:23 *157:27 20.3193 
6 *157:27 *378:A1 20 
7 *157:27 *157:40 47.0658 
8 *157:40 *413:B2 20 
9 *157:23 *382:B 41.9055 
10 *157:4 *512:B 24.7792 
*END

*D_NET *158 0.00126835
*CONN
*I *511:B I *D sg13g2_nand2_1
*I *512:Y O *D sg13g2_nand2_1
*CAP
1 *511:B 0.000383882
2 *512:Y 0.000383882
3 *416:A1 *511:B 0
4 *512:B *511:B 0.000500589
5 *144:14 *511:B 0
*RES
1 *512:Y *511:B 43.6977 
*END

*D_NET *159 0.000488623
*CONN
*I *324:B I *D sg13g2_nor2_1
*I *456:Q O *D sg13g2_dfrbpq_1
*CAP
1 *324:B 0.000244312
2 *456:Q 0.000244312
3 *324:B *438:RESET_B 0
4 *324:B *199:37 0
*RES
1 *456:Q *324:B 42.5647 
*END

*D_NET *160 0.00127229
*CONN
*I *512:A I *D sg13g2_nand2_1
*I *478:X O *D sg13g2_buf_1
*CAP
1 *512:A 3.81134e-05
2 *478:X 0.00025131
3 *160:10 0.000289424
4 *160:10 *178:14 0
5 *160:10 *186:20 0
6 *160:10 *188:30 0.000274638
7 *416:A1 *512:A 7.21305e-05
8 *136:8 *512:A 7.21305e-05
9 *137:10 *160:10 0.000274545
*RES
1 *478:X *160:10 42.678 
2 *160:10 *512:A 40.4815 
*END

*D_NET *161 0.00345809
*CONN
*I *482:A I *D sg13g2_buf_1
*I *337:A I *D sg13g2_nand2_1
*I *310:Y O *D sg13g2_inv_1
*CAP
1 *482:A 0
2 *337:A 0
3 *310:Y 0.000563065
4 *161:26 0.00038374
5 *161:14 0.00038374
6 *161:12 0.000563065
7 *161:12 *322:A 2.14736e-05
8 *161:12 *162:32 0
9 *161:12 *180:16 0
10 *161:12 *204:28 0.000392347
11 *161:26 *320:A 0
12 *161:26 *322:A 0.000110829
13 *161:26 *163:76 0.000387286
14 *161:26 *170:12 0.000231665
15 *161:26 *191:14 0
16 *161:26 *191:18 0
17 dac_code[1] *161:26 0
18 dac_code[5] *161:26 0.000144434
19 *310:A *161:12 1.54446e-05
20 *8:8 *161:12 0.00018128
21 *31:14 *161:26 7.97219e-05
22 *34:27 *161:26 0
23 *68:10 *161:12 0
*RES
1 *310:Y *161:12 45.562 
2 *161:12 *161:14 20 
3 *161:14 *161:26 44.3363 
4 *161:26 *337:A 20 
5 *161:14 *482:A 20 
*END

*D_NET *162 0.00856105
*CONN
*I *396:A1 I *D sg13g2_a21oi_1
*I *483:A I *D sg13g2_buf_1
*I *320:A I *D sg13g2_nand2_1
*I *309:Y O *D sg13g2_inv_1
*CAP
1 *396:A1 3.13841e-05
2 *483:A 0
3 *320:A 0.000284211
4 *309:Y 0.000316872
5 *162:36 0.000344013
6 *162:32 0.00243409
7 *162:10 0.00240568
8 *162:8 0.000316872
9 *320:A *320:B 0
10 *320:A *163:64 1.54008e-05
11 *162:32 *322:A 0
12 *162:32 *336:B 5.27601e-05
13 *162:32 *442:RESET_B 0
14 *162:32 *467:A 6.46834e-05
15 *162:32 *166:10 0.00069477
16 *162:32 *168:12 0
17 *162:32 *189:6 0
18 *162:32 *189:10 0
19 *162:32 *189:105 0
20 *162:32 *190:41 0.000434697
21 *162:32 *191:90 0
22 *162:32 *197:62 0
23 *162:32 *198:87 0
24 *162:32 *204:28 0
25 *162:36 *163:64 9.66979e-05
26 dac_code[4] *320:A 0.000176264
27 dac_code[5] *320:A 7.88655e-05
28 *389:A1 *162:32 0
29 *396:A2 *162:32 0
30 *397:A2 *396:A1 0
31 *433:CLK *162:32 0
32 *459:A *162:32 0
33 *10:14 *162:32 0.000392933
34 *34:27 *162:36 0
35 *68:10 *162:32 0
36 *120:10 *162:8 0.000179542
37 *144:58 *162:8 0
38 *151:10 *162:8 0
39 *151:12 *162:8 0
40 *151:14 *162:8 0
41 *152:37 *162:32 0
42 *154:65 *162:32 0.000241313
43 *161:12 *162:32 0
44 *161:26 *320:A 0
*RES
1 *309:Y *162:8 43.3166 
2 *162:8 *162:10 20 
3 *162:10 *162:32 43.6179 
4 *162:32 *162:36 20.7519 
5 *162:36 *320:A 22.7501 
6 *162:36 *483:A 20 
7 *162:10 *396:A1 20.3193 
*END

*D_NET *163 0.0106727
*CONN
*I *484:A I *D sg13g2_buf_1
*I *321:A I *D sg13g2_nand2_1
*I *402:A1 I *D sg13g2_a221oi_1
*I *404:A1 I *D sg13g2_o21ai_1
*I *308:Y O *D sg13g2_inv_1
*CAP
1 *484:A 0
2 *321:A 0
3 *402:A1 0
4 *404:A1 0
5 *308:Y 0
6 *163:76 0.00052348
7 *163:66 0.00052348
8 *163:64 0.00130599
9 *163:39 0.000261787
10 *163:33 0.000451162
11 *163:20 0.000863392
12 *163:4 0.00198001
13 *163:20 *408:A1 0
14 *163:20 *174:22 0
15 *163:20 *182:20 0.000143999
16 *163:33 *182:20 0.000193131
17 *163:64 *322:A 0
18 *163:64 *174:22 0
19 *163:64 *181:16 0.000272746
20 *163:64 *183:18 0
21 *163:76 *492:A 0
22 *163:76 *170:12 0
23 *163:76 *175:12 0.000143492
24 *163:76 *180:16 0.00091294
25 *163:76 *191:18 0
26 dac_code_n[7] *163:76 0.000176562
27 *320:A *163:64 1.54008e-05
28 *404:A2 *163:20 1.54008e-05
29 *404:A2 *163:33 0.000208532
30 *446:CLK *163:64 0.000336746
31 *10:14 *163:64 0
32 *15:12 *163:39 0
33 *31:14 *163:64 0
34 *31:14 *163:76 0.000143549
35 *34:27 *163:20 4.76661e-05
36 *34:27 *163:64 0.000320376
37 *44:29 *163:64 0
38 *45:12 *163:20 0
39 *50:60 *163:39 0.000339828
40 *73:22 *163:39 0.000340186
41 *73:28 *163:39 0.000495575
42 *73:43 *163:39 2.14736e-05
43 *144:37 *163:33 0.000100885
44 *144:47 *163:33 5.09528e-05
45 *161:26 *163:76 0.000387286
46 *162:36 *163:64 9.66979e-05
*RES
1 *308:Y *163:4 20 
2 *163:4 *163:20 6.8804 
3 *163:20 *404:A1 20 
4 *163:20 *163:33 42.369 
5 *163:33 *163:39 43.811 
6 *163:39 *402:A1 20 
7 *163:4 *163:64 33.6887 
8 *163:64 *163:66 20 
9 *163:66 *163:76 46.4581 
10 *163:76 *321:A 20 
11 *163:66 *484:A 20 
*END

*D_NET *164 0.00765238
*CONN
*I *408:A1 I *D sg13g2_o21ai_1
*I *322:A I *D sg13g2_nand2_1
*I *485:A I *D sg13g2_buf_1
*I *307:Y O *D sg13g2_inv_1
*CAP
1 *408:A1 0.000681597
2 *322:A 0.000505389
3 *485:A 4.66224e-05
4 *307:Y 0.000206184
5 *164:18 0.000552012
6 *164:16 0.00109164
7 *164:12 0.00197942
8 *322:A *180:16 0.000700537
9 *408:A1 *398:A1 0
10 dac_code[1] *322:A 0.00024471
11 dac_code[3] *322:A 0
12 dac_code[4] *322:A 0
13 *392:B *408:A1 0
14 *407:A_N *408:A1 0
15 *408:B1 *408:A1 0
16 *408:A2 *408:A1 0
17 *435:D *164:12 0
18 *10:14 *322:A 0
19 *33:10 *164:16 0.00148118
20 *45:12 *408:A1 1.54008e-05
21 *45:12 *164:12 0
22 *45:16 *164:12 0
23 *101:31 *408:A1 0
24 *144:47 *408:A1 1.54008e-05
25 *153:40 *408:A1 0
26 *153:40 *164:12 0
27 *161:12 *322:A 2.14736e-05
28 *161:26 *322:A 0.000110829
29 *162:32 *322:A 0
30 *163:20 *408:A1 0
31 *163:64 *322:A 0
*RES
1 *307:Y *164:12 41.9158 
2 *164:12 *164:16 31.3506 
3 *164:16 *164:18 20 
4 *164:18 *485:A 40.3502 
5 *164:18 *322:A 45.9199 
6 *164:12 *408:A1 46.3963 
*END

*D_NET *165 0.00343895
*CONN
*I *486:A I *D sg13g2_buf_1
*I *323:A I *D sg13g2_nand2_1
*I *306:Y O *D sg13g2_inv_1
*CAP
1 *486:A 3.78077e-05
2 *323:A 0.000288606
3 *306:Y 0.000258827
4 *165:10 0.000585241
5 *323:A *179:28 0
6 *323:A *182:20 0.000315356
7 *323:A *187:74 0
8 *165:10 *187:74 0
9 *398:A2 *165:10 0.000144866
10 *408:A2 *165:10 0
11 *409:A1 *323:A 0
12 *432:D *323:A 0
13 *73:22 *165:10 0.000421951
14 *73:28 *323:A 0.000230526
15 *73:28 *165:10 0.000287642
16 *73:43 *323:A 0
17 *144:58 *323:A 0.000179945
18 *144:58 *165:10 0.000688183
*RES
1 *306:Y *165:10 44.5011 
2 *165:10 *323:A 43.4196 
3 *165:10 *486:A 40.3193 
*END

*D_NET *166 0.00282222
*CONN
*I *487:A I *D sg13g2_buf_1
*I *336:Y O *D sg13g2_nand2_1
*CAP
1 *487:A 0.000120817
2 *336:Y 0.000903023
3 *166:10 0.00102384
4 *487:A *169:12 0
5 *166:10 *198:69 0
6 *166:10 *198:79 0
7 *391:B1 *166:10 0
8 *43:10 *487:A 7.97665e-05
9 *43:10 *166:10 0
10 *162:32 *166:10 0.00069477
*RES
1 *336:Y *166:10 48.9198 
2 *166:10 *487:A 41.3184 
*END

*D_NET *167 0.00825846
*CONN
*I *488:A I *D sg13g2_buf_1
*I *339:Y O *D sg13g2_nand2_1
*CAP
1 *488:A 0.000253186
2 *339:Y 0.0011412
3 *167:26 0.00184718
4 *167:22 0.0027352
5 *488:A *169:12 0
6 *488:A *170:16 0.000468499
7 *167:22 *339:A 0
8 *167:22 *510:A 0
9 *167:22 *191:28 4.78195e-05
10 *167:22 *206:20 0
11 *167:26 *174:22 0
12 *167:26 *181:8 0
13 *167:26 *181:16 0
14 *167:26 *188:14 0
15 *167:26 *190:41 0.000440845
16 result[0] *167:22 0.00037185
17 *440:CLK *167:22 3.86119e-05
18 *446:CLK *167:26 0
19 *9:10 *167:26 0
20 *10:14 *167:22 0
21 *16:8 *488:A 0.000403586
22 *32:26 *167:22 0
23 *40:40 *167:22 0
24 *40:50 *167:22 0.000121694
25 *78:10 *167:26 0.000388788
26 *153:8 *167:26 0
27 *153:18 *167:22 0
28 *154:12 *167:26 0
29 *154:18 *167:26 0
30 *154:24 *167:26 0
*RES
1 *339:Y *167:22 31.433 
2 *167:22 *167:26 35.4294 
3 *167:26 *488:A 43.1312 
*END

*D_NET *168 0.00827377
*CONN
*I *489:A I *D sg13g2_buf_1
*I *338:Y O *D sg13g2_nand2_1
*CAP
1 *489:A 0
2 *338:Y 0
3 *168:12 0.00195677
4 *168:6 0.00195677
5 *168:12 *341:A2 0.000700701
6 *168:12 *169:12 0.000533397
7 *168:12 *180:16 0
8 *168:12 *183:10 0.00137804
9 *168:12 *183:18 0.000927026
10 *168:12 *188:60 0.000287672
11 *168:12 *197:56 0
12 *168:12 *197:62 0
13 *168:12 *197:101 0
14 *168:12 *206:35 0
15 *9:10 *168:12 0
16 *16:8 *168:12 0.000533397
17 *68:10 *168:12 0
18 *136:20 *168:12 0
19 *162:32 *168:12 0
*RES
1 *338:Y *168:6 40 
2 *168:6 *168:12 41.9596 
3 *168:12 *489:A 20 
*END

*D_NET *169 0.00870099
*CONN
*I *490:A I *D sg13g2_buf_1
*I *337:Y O *D sg13g2_nand2_1
*CAP
1 *490:A 0
2 *337:Y 0
3 *169:12 0.00231827
4 *169:6 0.00231827
5 *169:12 *170:16 0
6 *169:12 *180:10 4.73096e-05
7 *169:12 *183:10 0.000242154
8 *169:12 *189:25 0
9 *169:12 *191:10 0.000850895
10 *169:12 *191:12 0.000528565
11 *169:12 *191:14 0.000211527
12 *169:12 *191:18 0.000178959
13 *169:12 *191:90 0.000160341
14 *309:A *169:12 0
15 *487:A *169:12 0
16 *488:A *169:12 0
17 *11:16 *169:12 0
18 *14:18 *169:12 0
19 *16:8 *169:12 0
20 *18:8 *169:12 0.000820067
21 *19:10 *169:12 0
22 *22:8 *169:12 0.00023464
23 *34:9 *169:12 0
24 *42:10 *169:12 8.01938e-05
25 *43:10 *169:12 0.0001764
26 *168:12 *169:12 0.000533397
*RES
1 *337:Y *169:6 40 
2 *169:6 *169:12 47.089 
3 *169:12 *490:A 20 
*END

*D_NET *170 0.00759425
*CONN
*I *491:A I *D sg13g2_buf_1
*I *320:Y O *D sg13g2_nand2_1
*CAP
1 *491:A 0
2 *320:Y 0.00101519
3 *170:16 0.00147897
4 *170:12 0.00249417
5 *170:12 *173:8 0
6 *170:12 *180:16 0
7 *170:12 *191:10 0
8 *170:12 *191:14 0
9 *310:A *170:12 0.000287256
10 *388:A0 *170:16 0
11 *488:A *170:16 0.000468499
12 *16:8 *170:16 0
13 *17:10 *170:16 0.00127779
14 *19:10 *170:16 0
15 *42:18 *170:12 0.000340704
16 *42:18 *170:16 0
17 *161:26 *170:12 0.000231665
18 *163:76 *170:12 0
19 *169:12 *170:16 0
*RES
1 *320:Y *170:12 49.4245 
2 *170:12 *170:16 35.0277 
3 *170:16 *491:A 20 
*END

*D_NET *171 0.00526222
*CONN
*I *511:A I *D sg13g2_nand2_1
*I *479:X O *D sg13g2_buf_1
*CAP
1 *511:A 0
2 *479:X 0.0001041
3 *171:14 0.00182816
4 *171:8 0.00193226
5 *171:14 *401:A1 0.000392195
6 *171:14 *182:41 0
7 *171:14 *187:51 8.0216e-05
8 *171:14 *194:52 0
9 *171:14 *195:68 0.00022912
10 *382:B *171:14 0
11 *387:B *171:8 0
12 *394:A *171:14 0
13 *399:A *171:14 0
14 *512:B *171:14 8.0342e-05
15 *73:68 *171:14 0.00043849
16 *74:33 *171:14 0
17 *98:27 *171:14 0
18 *104:10 *171:14 0
19 *110:8 *171:14 0
20 *119:25 *171:14 0
21 *144:33 *171:14 0
22 *151:10 *171:8 0.000177339
23 *151:10 *171:14 0
24 *151:12 *171:14 0
25 *151:14 *171:14 0
*RES
1 *479:X *171:8 41.1845 
2 *171:8 *171:14 37.6954 
3 *171:14 *511:A 20 
*END

*D_NET *172 0.000338786
*CONN
*I *492:A I *D sg13g2_buf_1
*I *321:Y O *D sg13g2_nand2_1
*CAP
1 *492:A 0.000169393
2 *321:Y 0.000169393
3 *492:A *321:B 0
4 dac_code_n[5] *492:A 0
5 *310:A *492:A 0
6 *163:76 *492:A 0
*RES
1 *321:Y *492:A 41.9055 
*END

*D_NET *173 0.000457127
*CONN
*I *493:A I *D sg13g2_buf_1
*I *322:Y O *D sg13g2_nand2_1
*CAP
1 *493:A 0
2 *322:Y 0.000113772
3 *173:8 0.000113772
4 *173:8 *191:12 0.000229583
5 *170:12 *173:8 0
*RES
1 *322:Y *173:8 41.0918 
2 *173:8 *493:A 40 
*END

*D_NET *174 0.00504253
*CONN
*I *494:A I *D sg13g2_buf_1
*I *323:Y O *D sg13g2_nand2_1
*CAP
1 *494:A 0.0005504
2 *323:Y 0.000170717
3 *174:22 0.0016994
4 *174:10 0.00131971
5 *494:A *185:16 0
6 *494:A *190:41 0
7 *174:10 *179:16 0
8 *174:10 *182:20 0
9 *174:10 *198:67 0.000233188
10 *174:22 *182:20 0
11 *174:22 *183:18 0
12 *174:22 *197:123 4.77425e-05
13 dac_code[1] *494:A 0.00043582
14 *435:D *174:10 0.000143335
15 *435:D *174:22 0
16 *458:A *494:A 0
17 *34:27 *494:A 0
18 *101:31 *174:10 0.000233267
19 *132:10 *174:10 0
20 *154:18 *494:A 0.000208956
21 *154:24 *174:22 0
22 *163:20 *174:22 0
23 *163:64 *174:22 0
24 *167:26 *174:22 0
*RES
1 *323:Y *174:10 42.2763 
2 *174:10 *174:22 49.8056 
3 *174:22 *494:A 45.8607 
*END

*D_NET *175 0.0035043
*CONN
*I *495:A I *D sg13g2_buf_1
*I *455:Q O *D sg13g2_dfrbpq_1
*CAP
1 *495:A 0.000230002
2 *455:Q 0.000891101
3 *175:12 0.0011211
4 done *495:A 0.000175867
5 done *175:12 0
6 *14:10 *175:12 7.90308e-05
7 *31:14 *495:A 0
8 *31:14 *175:12 0.000863709
9 *163:76 *175:12 0.000143492
*RES
1 *455:Q *175:12 48.8683 
2 *175:12 *495:A 42.4617 
*END

*D_NET *176 0.0149045
*CONN
*I *324:A I *D sg13g2_nor2_1
*I *496:A I *D sg13g2_buf_1
*I *469:A I *D sg13g2_buf_1
*I *314:Y O *D sg13g2_inv_1
*CAP
1 *324:A 0
2 *496:A 5.93263e-05
3 *469:A 0.000832142
4 *314:Y 0.0007268
5 *176:58 0.00042109
6 *176:36 0.000891469
7 *176:34 0.00203895
8 *176:28 0.00277687
9 *176:18 0.0012653
10 *176:14 0.00083309
11 *469:A *191:90 0.00134144
12 *496:A *191:90 0.000112441
13 *176:14 *353:A1 8.00842e-05
14 *176:14 *447:RESET_B 0
15 *176:14 *450:RESET_B 0
16 *176:14 *199:45 0
17 *176:14 *207:14 8.02276e-05
18 *176:14 *210:59 0.000177339
19 *176:18 *342:A 4.77425e-05
20 *176:18 *196:42 9.7025e-05
21 *176:28 *454:RESET_B 0
22 *176:28 *199:47 0
23 *176:34 *189:36 0
24 *176:34 *190:12 0
25 *176:34 *190:16 2.14736e-05
26 *176:34 *190:29 0.000686002
27 *176:34 *204:14 0
28 *176:58 *199:37 0
29 *176:58 *199:45 0
30 hold *469:A 0
31 *313:A *176:58 0.000128439
32 *334:B *176:18 0
33 *342:B *176:58 7.52149e-05
34 *353:B1 *176:14 0
35 *362:A0 *176:28 0.000274561
36 *442:CLK *469:A 0
37 *450:D *176:14 0.000177466
38 *452:D *176:28 0
39 *454:D *176:28 0
40 *25:12 *469:A 0.000499853
41 *25:12 *496:A 3.23529e-05
42 *50:52 *176:28 0
43 *69:10 *176:34 0
44 *76:19 *176:18 0
45 *79:47 *176:28 0.000305011
46 *88:33 *176:58 0.000922837
47 *152:17 *176:34 0
48 *152:62 *176:34 0
49 *154:65 *496:A 0
*RES
1 *314:Y *176:14 47.4263 
2 *176:14 *176:18 21.1845 
3 *176:18 *176:28 47.4778 
4 *176:28 *176:34 39.8275 
5 *176:34 *176:36 20 
6 *176:36 *469:A 28.9713 
7 *176:36 *496:A 20.7519 
8 *176:18 *176:58 45.3663 
9 *176:58 *324:A 20 
*END

*D_NET *177 0.00323382
*CONN
*I *497:A I *D sg13g2_buf_1
*I *415:A I *D sg13g2_nand2_1
*I *439:Q O *D sg13g2_dfrbpq_1
*CAP
1 *497:A 6.96191e-05
2 *415:A 0.000371849
3 *439:Q 0.000283159
4 *177:37 0.000569232
5 *177:10 0.00115462
6 *415:A *416:A2 0
7 *415:A *203:16 0
8 *415:A *206:51 7.32394e-05
9 *497:A *410:A1 8.01938e-05
10 *497:A *198:35 4.77425e-05
11 *177:10 *179:16 4.74263e-05
12 *177:10 *197:123 0
13 *428:A1 *177:10 0
14 *26:14 *177:37 0
15 *28:12 *177:37 0
16 *29:8 *415:A 0
17 *29:8 *177:10 0
18 *45:20 *177:10 0
19 *128:8 *177:37 7.31655e-05
20 *128:14 *177:37 0.000278341
21 *153:27 *415:A 0.000185227
*RES
1 *439:Q *177:10 42.3999 
2 *177:10 *415:A 43.4454 
3 *177:10 *177:37 44.5629 
4 *177:37 *497:A 40.7519 
*END

*D_NET *178 0.0044304
*CONN
*I *498:A I *D sg13g2_buf_1
*I *417:A I *D sg13g2_nand2_1
*I *440:Q O *D sg13g2_dfrbpq_1
*CAP
1 *498:A 0.000143873
2 *417:A 0
3 *440:Q 0
4 *178:20 0.000695742
5 *178:14 0.00100989
6 *178:10 0.00104907
7 *178:6 0.000878796
8 *498:A *439:RESET_B 0
9 *498:A *203:16 0
10 *178:10 *188:22 0.000440804
11 *178:14 *203:16 0
12 *41:16 *178:20 0
13 *136:12 *178:10 0
14 *136:12 *178:20 0.00021223
15 *160:10 *178:14 0
*RES
1 *440:Q *178:6 40 
2 *178:6 *178:10 31.1343 
3 *178:10 *178:14 21.339 
4 *178:14 *178:20 48.1061 
5 *178:20 *417:A 40 
6 *178:14 *498:A 41.339 
*END

*D_NET *179 0.00552071
*CONN
*I *499:A I *D sg13g2_buf_1
*I *419:A I *D sg13g2_nand2_1
*I *441:Q O *D sg13g2_dfrbpq_1
*CAP
1 *499:A 0
2 *419:A 0
3 *441:Q 0.00108882
4 *179:28 0.000964511
5 *179:16 0.00205333
6 *179:16 *436:RESET_B 0.000186807
7 *179:16 *466:A 8.00842e-05
8 *179:16 *504:A 0
9 *179:16 *188:14 0
10 *179:28 *432:RESET_B 4.77425e-05
11 *179:28 *186:20 0
12 *179:28 *187:51 0
13 *179:28 *188:30 0
14 *179:28 *193:10 0
15 *179:28 *198:35 0
16 *179:28 *206:59 0.000489761
17 done *179:16 0
18 *323:A *179:28 0
19 *381:B1 *179:28 0
20 *405:A *179:16 0
21 *405:A *179:28 0
22 *409:A1 *179:16 0
23 *428:A1 *179:16 0
24 *432:D *179:28 0
25 *435:D *179:16 0
26 *32:26 *179:16 0
27 *41:12 *179:28 0
28 *45:16 *179:16 0
29 *132:10 *179:16 0.000111261
30 *136:8 *179:28 0.000241626
31 *137:10 *179:28 0.000209344
32 *174:10 *179:16 0
33 *177:10 *179:16 4.74263e-05
*RES
1 *441:Q *179:16 31.1549 
2 *179:16 *179:28 49.2803 
3 *179:28 *419:A 20 
4 *179:16 *499:A 20 
*END

*D_NET *180 0.00882681
*CONN
*I *421:A I *D sg13g2_nand2_1
*I *500:A I *D sg13g2_buf_1
*I *442:Q O *D sg13g2_dfrbpq_1
*CAP
1 *421:A 0.000159659
2 *500:A 0
3 *442:Q 0.000211579
4 *180:26 0.000188962
5 *180:16 0.00292881
6 *180:10 0.00311109
7 *421:A *189:25 1.54008e-05
8 *180:16 *339:A 0
9 *180:16 *188:60 0
10 *180:16 *191:28 0
11 *180:16 *197:38 0
12 *180:16 *204:28 0
13 *180:26 *203:16 0
14 result[6] *180:16 0
15 *322:A *180:16 0.000700537
16 *6:11 *180:16 0
17 *6:11 *180:26 4.27961e-05
18 *8:8 *180:16 0.000181387
19 *10:14 *180:16 0
20 *17:10 *421:A 0.000214465
21 *37:10 *180:16 0
22 *40:50 *180:16 0
23 *42:18 *421:A 0.000111876
24 *137:10 *180:26 0
25 *161:12 *180:16 0
26 *163:76 *180:16 0.00091294
27 *168:12 *180:16 0
28 *169:12 *180:10 4.73096e-05
29 *170:12 *180:16 0
*RES
1 *442:Q *180:10 42.1527 
2 *180:10 *180:16 47.6452 
3 *180:16 *180:26 41.7278 
4 *180:26 *500:A 20 
5 *180:10 *421:A 41.854 
*END

*D_NET *181 0.00840632
*CONN
*I *423:A I *D sg13g2_nand2_1
*I *501:A I *D sg13g2_buf_1
*I *443:Q O *D sg13g2_dfrbpq_1
*CAP
1 *423:A 2.41961e-05
2 *501:A 0.000532447
3 *443:Q 0.000666836
4 *181:16 0.000802472
5 *181:8 0.000961058
6 *501:A *503:A 0.000232139
7 *501:A *184:10 0.00120867
8 *501:A *185:30 0.00201732
9 *181:8 *189:36 0.0009166
10 *181:8 *197:70 7.44237e-05
11 *181:16 *184:10 0.000208355
12 *181:16 *189:36 0.000128576
13 *181:16 *189:49 0
14 *29:8 *501:A 0
15 *34:27 *181:16 0
16 *43:10 *181:8 0
17 *135:8 *501:A 0.000178794
18 *154:24 *181:16 0.00018168
19 *163:64 *181:16 0.000272746
20 *167:26 *181:8 0
21 *167:26 *181:16 0
*RES
1 *443:Q *181:8 48.0134 
2 *181:8 *181:16 43.4196 
3 *181:16 *501:A 49.4966 
4 *181:8 *423:A 40.3193 
*END

*D_NET *182 0.0100081
*CONN
*I *477:A I *D sg13g2_buf_1
*I *476:A I *D sg13g2_buf_1
*I *475:A I *D sg13g2_buf_1
*I *480:X O *D sg13g2_buf_1
*CAP
1 *477:A 0.00098473
2 *476:A 0
3 *475:A 0
4 *480:X 0.000110515
5 *182:41 0.00195539
6 *182:24 0.00125467
7 *182:20 0.00113954
8 *182:8 0.000966041
9 *477:A *430:RESET_B 0.000371932
10 *477:A *456:RESET_B 0
11 *477:A *507:A 0
12 *477:A *187:45 0
13 *477:A *199:22 0.000436341
14 *477:A *203:6 0
15 *477:A *203:12 0
16 *182:8 *203:16 0
17 *182:20 *187:74 0
18 *182:20 *206:59 0.000388804
19 *182:24 *432:RESET_B 0
20 *182:24 *198:35 0
21 *182:41 *431:RESET_B 0
22 *182:41 *507:A 0
23 *182:41 *187:45 0
24 *182:41 *199:22 0
25 *182:41 *203:12 0
26 *318:A *182:41 0
27 *323:A *182:20 0.000315356
28 *327:A *477:A 8.00842e-05
29 *375:B1 *477:A 0.000533897
30 *381:A2 *182:41 0
31 *404:A2 *182:20 0
32 *431:D *182:41 0
33 *431:CLK *477:A 0
34 *435:D *182:20 0.000433022
35 *45:12 *182:8 0.000230822
36 *73:43 *182:20 0
37 *73:68 *182:41 0
38 *74:33 *182:41 0.000389734
39 *100:17 *477:A 0
40 *136:8 *182:41 0
41 *144:33 *182:41 0
42 *155:52 *477:A 0
43 *157:10 *182:41 8.00842e-05
44 *157:23 *182:41 0
45 *163:20 *182:20 0.000143999
46 *163:33 *182:20 0.000193131
47 *171:14 *182:41 0
48 *174:10 *182:20 0
49 *174:22 *182:20 0
*RES
1 *480:X *182:8 41.0918 
2 *182:8 *182:20 49.064 
3 *182:20 *182:24 22.266 
4 *182:24 *475:A 20 
5 *182:24 *182:41 49.7438 
6 *182:41 *476:A 20 
7 *182:41 *477:A 31.7008 
*END

*D_NET *183 0.0073582
*CONN
*I *425:A I *D sg13g2_nand2_1
*I *502:A I *D sg13g2_buf_1
*I *444:Q O *D sg13g2_dfrbpq_1
*CAP
1 *425:A 0
2 *502:A 0
3 *444:Q 0.000652494
4 *183:18 0.00117503
5 *183:10 0.00182753
6 *183:18 *197:123 4.77425e-05
7 *435:D *183:18 0
8 *9:10 *183:18 0
9 *31:14 *183:18 0.00110818
10 *152:19 *183:10 0
11 *152:19 *183:18 0
12 *152:37 *183:10 0
13 *154:12 *183:10 0
14 *154:18 *183:18 0
15 *163:64 *183:18 0
16 *168:12 *183:10 0.00137804
17 *168:12 *183:18 0.000927026
18 *169:12 *183:10 0.000242154
19 *174:22 *183:18 0
*RES
1 *444:Q *183:10 48.6417 
2 *183:10 *183:18 32.7617 
3 *183:18 *502:A 20 
4 *183:10 *425:A 40 
*END

*D_NET *184 0.00409606
*CONN
*I *427:A I *D sg13g2_nand2_1
*I *503:A I *D sg13g2_buf_1
*I *445:Q O *D sg13g2_dfrbpq_1
*CAP
1 *427:A 0
2 *503:A 0.000185623
3 *445:Q 0.00052888
4 *184:10 0.000714504
5 *184:10 *504:A 0
6 *184:10 *185:30 0
7 *184:10 *197:123 0.00076053
8 *311:A *503:A 0
9 *428:A1 *503:A 1.54008e-05
10 *501:A *503:A 0.000232139
11 *501:A *184:10 0.00120867
12 *29:8 *503:A 0
13 *34:27 *184:10 0.000241957
14 *153:27 *503:A 0
15 *181:16 *184:10 0.000208355
*RES
1 *445:Q *184:10 47.6529 
2 *184:10 *503:A 41.9467 
3 *184:10 *427:A 40 
*END

*D_NET *185 0.00929176
*CONN
*I *504:A I *D sg13g2_buf_1
*I *340:A I *D sg13g2_nand2_1
*I *446:Q O *D sg13g2_dfrbpq_1
*CAP
1 *504:A 0.000592283
2 *340:A 0
3 *446:Q 0.000731884
4 *185:30 0.000819226
5 *185:16 0.00214339
6 *504:A *197:123 0
7 *185:16 *423:B 0
8 *185:16 *189:36 0
9 *185:16 *189:49 0
10 *185:30 *188:16 0
11 *185:30 *189:49 0.00102278
12 *185:30 *189:51 0.000543631
13 *185:30 *189:57 0.000384144
14 *426:B1 *185:16 0.000144261
15 *426:A1 *185:16 0.000274249
16 *435:D *504:A 0.000207636
17 *494:A *185:16 0
18 *501:A *185:30 0.00201732
19 *3:8 *504:A 0
20 *6:11 *185:30 0
21 *29:8 *185:30 0
22 *30:18 *185:30 1.54008e-05
23 *44:29 *185:16 3.23417e-05
24 *137:10 *185:30 8.0142e-05
25 *137:18 *185:30 0
26 *139:12 *185:16 0.000283069
27 *179:16 *504:A 0
28 *184:10 *504:A 0
29 *184:10 *185:30 0
*RES
1 *446:Q *185:16 47.6838 
2 *185:16 *185:30 33.1943 
3 *185:30 *340:A 20 
4 *185:16 *504:A 45.4384 
*END

*D_NET *186 0.0051084
*CONN
*I *505:A I *D sg13g2_buf_1
*I *324:Y O *D sg13g2_nor2_1
*CAP
1 *505:A 0
2 *324:Y 0.000399445
3 *186:20 0.000473789
4 *186:14 0.00189265
5 *186:10 0.00181831
6 *186:10 *187:28 0
7 *186:10 *199:37 0
8 *186:10 *204:10 0
9 *186:14 *193:22 0.000168725
10 *186:14 *197:12 0
11 *186:14 *206:59 0
12 *186:20 *439:RESET_B 0
13 *186:20 *187:51 0
14 *186:20 *198:35 0.000282467
15 *374:A2 *186:10 0
16 *26:8 *186:20 7.30101e-05
17 *36:15 *186:20 0
18 *46:20 *186:14 0
19 *101:23 *186:20 0
20 *128:8 *186:20 0
21 *160:10 *186:20 0
22 *179:28 *186:20 0
*RES
1 *324:Y *186:10 43.7595 
2 *186:10 *186:14 33.9462 
3 *186:14 *186:20 44.3054 
4 *186:20 *505:A 20 
*END

*D_NET *187 0.0147919
*CONN
*I *366:A2 I *D sg13g2_a22oi_1
*I *354:A I *D sg13g2_inv_1
*I *372:A I *D sg13g2_and2_1
*I *380:A1 I *D sg13g2_o21ai_1
*I *391:A1 I *D sg13g2_o21ai_1
*I *398:A1 I *D sg13g2_o21ai_1
*I *410:A1 I *D sg13g2_o21ai_1
*I *373:A I *D sg13g2_nand2_1
*I *465:X O *D sg13g2_buf_1
*CAP
1 *366:A2 0.000128181
2 *354:A 0.000106667
3 *372:A 0
4 *380:A1 0
5 *391:A1 0
6 *398:A1 0.000171112
7 *410:A1 0.000328274
8 *373:A 4.06468e-05
9 *465:X 0.000129475
10 *187:89 0.000321801
11 *187:74 0.00159709
12 *187:51 0.00212701
13 *187:45 0.00114864
14 *187:41 0.000683992
15 *187:28 0.00124437
16 *187:14 0.00146172
17 *187:10 0.000638897
18 *366:A2 *199:47 0.000175917
19 *187:10 *199:47 0.000111234
20 *187:14 *204:10 0
21 *187:28 *437:RESET_B 0
22 *187:28 *199:28 0.000179045
23 *187:28 *204:10 0
24 *187:51 *193:10 0
25 *187:74 *323:B 0
26 *187:74 *193:10 0
27 *187:74 *206:59 0
28 *187:89 *323:B 0
29 *187:89 *198:67 0
30 *187:89 *204:18 2.20966e-05
31 *313:A *354:A 0
32 *323:A *187:74 0
33 *369:A2 *187:28 0
34 *372:B *187:41 0
35 *380:B1 *187:51 0
36 *391:A2 *187:89 1.54008e-05
37 *392:B *398:A1 1.54008e-05
38 *398:A2 *398:A1 0.000143999
39 *398:A2 *187:74 0
40 *408:B1 *398:A1 0
41 *408:A1 *398:A1 0
42 *408:A2 *187:74 0
43 *410:A2 *410:A1 0.000122068
44 *411:A2 *187:41 0
45 *412:B *187:28 0
46 *431:CLK *187:45 0
47 *432:CLK *410:A1 0.000241166
48 *468:A *187:28 0
49 *477:A *187:45 0
50 *497:A *410:A1 8.01938e-05
51 *512:B *187:51 0
52 *20:8 *187:89 0.000179892
53 *28:8 *187:74 0
54 *40:12 *187:45 0
55 *40:20 *187:51 0.000290552
56 *40:26 *187:51 0.000371103
57 *46:8 *187:28 0
58 *46:8 *187:41 0
59 *46:18 *373:A 0
60 *46:18 *187:28 0
61 *46:45 *398:A1 4.77425e-05
62 *46:45 *187:74 4.77425e-05
63 *46:45 *187:89 7.30101e-05
64 *50:44 *187:14 0.00023335
65 *54:10 *187:14 0
66 *73:51 *187:74 0
67 *76:19 *354:A 0
68 *79:57 *187:28 0
69 *88:20 *187:10 0.000182913
70 *88:20 *187:14 0.000233913
71 *88:33 *187:14 0.000871698
72 *88:33 *187:28 0
73 *100:17 *187:28 0
74 *101:6 *187:45 0
75 *101:23 *410:A1 4.70638e-05
76 *101:23 *187:51 7.33256e-05
77 *101:23 *187:74 0.000264779
78 *101:31 *410:A1 0
79 *102:12 *373:A 4.7796e-05
80 *102:73 *373:A 5.75612e-05
81 *102:73 *187:28 0.00031177
82 *102:73 *187:41 0
83 *127:10 *187:74 0
84 *129:31 *187:74 0.00012767
85 *144:47 *187:74 0
86 *144:58 *187:74 0
87 *148:25 *187:10 0
88 *148:25 *187:14 0
89 *153:34 *410:A1 1.54008e-05
90 *157:10 *187:51 0
91 *157:40 *373:A 0
92 *165:10 *187:74 0
93 *171:14 *187:51 8.0216e-05
94 *179:28 *187:51 0
95 *182:20 *187:74 0
96 *182:41 *187:45 0
97 *186:10 *187:28 0
98 *186:20 *187:51 0
*RES
1 *465:X *187:10 41.3493 
2 *187:10 *187:14 25.047 
3 *187:14 *187:28 48.9398 
4 *187:28 *373:A 20.4815 
5 *187:28 *187:41 41.8205 
6 *187:41 *187:45 4.7792 
7 *187:45 *187:51 26.4169 
8 *187:51 *410:A1 43.3681 
9 *187:51 *187:74 30.3618 
10 *187:74 *398:A1 21.6171 
11 *187:74 *187:89 42.8943 
12 *187:89 *391:A1 20 
13 *187:45 *380:A1 20 
14 *187:41 *372:A 20 
15 *187:14 *354:A 21.1021 
16 *187:10 *366:A2 41.1845 
*END

*D_NET *188 0.010374
*CONN
*I *427:B I *D sg13g2_nand2_1
*I *420:A2 I *D sg13g2_o21ai_1
*I *340:B I *D sg13g2_nand2_1
*I *335:A I *D sg13g2_inv_1
*I *341:A2 I *D sg13g2_o21ai_1
*I *418:A2 I *D sg13g2_o21ai_1
*I *417:B I *D sg13g2_nand2_1
*I *419:B I *D sg13g2_nand2_1
*I *466:X O *D sg13g2_buf_1
*CAP
1 *427:B 5.17865e-05
2 *420:A2 0
3 *340:B 0
4 *335:A 0
5 *341:A2 0.000355259
6 *418:A2 4.68507e-05
7 *417:B 0.000295514
8 *419:B 0
9 *466:X 5.22701e-05
10 *188:60 0.000643303
11 *188:54 0.000658007
12 *188:50 0.000416813
13 *188:30 0.001214
14 *188:22 0.00116551
15 *188:16 0.000448003
16 *188:14 0.000719197
17 *188:6 0.00062228
18 *341:A2 *339:A 0
19 *341:A2 *197:28 7.31655e-05
20 *417:B *203:12 0
21 *188:14 *206:12 0
22 *188:30 *203:12 0
23 *188:54 *338:B 0
24 *188:54 *197:101 0
25 *188:54 *206:35 0
26 *188:60 *338:B 0
27 *188:60 *339:A 0
28 sample *188:30 0.000111683
29 *311:A *188:14 0.000231338
30 *318:A *417:B 4.77425e-05
31 *341:A1 *341:A2 1.54008e-05
32 *441:D *188:54 0.00017724
33 *6:11 *188:30 0
34 *6:11 *188:54 0
35 *6:11 *188:60 8.03692e-05
36 *10:14 *341:A2 0
37 *30:18 *188:54 0
38 *37:10 *188:60 1.54008e-05
39 *40:32 *188:14 0
40 *40:50 *418:A2 7.19987e-05
41 *41:12 *188:30 0
42 *47:10 *341:A2 0
43 *67:8 *188:16 0
44 *78:10 *188:14 0
45 *78:10 *188:16 0
46 *78:10 *188:54 0.000177125
47 *136:8 *417:B 0
48 *136:8 *188:30 0
49 *136:12 *188:22 0
50 *137:10 *188:30 0.000468658
51 *137:18 *188:16 0
52 *141:10 *188:14 0.000511267
53 *144:10 *417:B 0
54 *160:10 *188:30 0.000274638
55 *167:26 *188:14 0
56 *168:12 *341:A2 0.000700701
57 *168:12 *188:60 0.000287672
58 *178:10 *188:22 0.000440804
59 *179:16 *188:14 0
60 *179:28 *188:30 0
61 *180:16 *188:60 0
62 *185:30 *188:16 0
*RES
1 *466:X *188:6 20.5974 
2 *188:6 *188:14 25.5002 
3 *188:14 *188:16 1.5862 
4 *188:16 *188:22 42.9149 
5 *188:22 *188:30 29.2391 
6 *188:30 *419:B 20 
7 *188:30 *417:B 23.0128 
8 *188:16 *188:50 20 
9 *188:50 *188:54 4.3466 
10 *188:54 *188:60 22.8634 
11 *188:60 *418:A2 40.4815 
12 *188:60 *341:A2 43.8522 
13 *188:54 *335:A 20 
14 *188:50 *340:B 20 
15 *188:14 *420:A2 40 
16 *188:6 *427:B 20.5356 
*END

*D_NET *189 0.0129246
*CONN
*I *424:A2 I *D sg13g2_o21ai_1
*I *466:A I *D sg13g2_buf_1
*I *428:A2 I *D sg13g2_o21ai_1
*I *416:A2 I *D sg13g2_o21ai_1
*I *415:B I *D sg13g2_nand2_1
*I *423:B I *D sg13g2_nand2_1
*I *421:B I *D sg13g2_nand2_1
*I *422:A2 I *D sg13g2_o21ai_1
*I *467:X O *D sg13g2_buf_1
*CAP
1 *424:A2 0
2 *466:A 5.07666e-05
3 *428:A2 0.000154977
4 *416:A2 0.000394424
5 *415:B 0
6 *423:B 5.4036e-05
7 *421:B 0
8 *422:A2 3.06462e-05
9 *467:X 2.97101e-05
10 *189:105 0.000265951
11 *189:57 0.000648998
12 *189:51 0.000630312
13 *189:49 0.000821815
14 *189:36 0.000916825
15 *189:25 0.000206238
16 *189:10 0.0011702
17 *189:8 0.00137373
18 *189:6 0.000423574
19 *428:A2 *206:12 0
20 *189:8 *467:A 1.54008e-05
21 *189:8 *190:41 0.000161004
22 *189:10 *190:41 0.000273693
23 *189:25 *191:10 0.000181192
24 *189:25 *191:90 0.000229351
25 *189:105 *467:A 6.46834e-05
26 *189:105 *190:29 0.000126276
27 hold *189:10 0
28 *311:A *189:57 0
29 *415:A *416:A2 0
30 *416:B1 *416:A2 0.000533695
31 *416:A1 *416:A2 1.54556e-05
32 *421:A *189:25 1.54008e-05
33 *422:B1 *422:A2 1.54008e-05
34 *422:A1 *422:A2 4.77425e-05
35 *422:A1 *189:10 8.00842e-05
36 *428:B1 *428:A2 8.01445e-05
37 *428:A1 *428:A2 0.000241907
38 *435:CLK *423:B 8.01776e-05
39 *435:CLK *189:49 0.000161801
40 *30:18 *189:57 0
41 *43:10 *189:105 0
42 *68:10 *422:A2 0
43 *68:10 *189:10 0
44 *69:10 *189:36 0.000337743
45 *69:10 *189:105 0
46 *137:10 *189:57 0
47 *139:12 *189:49 0
48 *141:10 *189:51 0
49 *153:27 *416:A2 0
50 *153:34 *416:A2 0
51 *154:18 *423:B 1.54008e-05
52 *154:24 *189:49 0
53 *154:59 *189:10 0
54 *154:65 *189:8 0
55 *154:65 *189:10 0
56 *154:65 *189:105 0
57 *162:32 *189:6 0
58 *162:32 *189:10 0
59 *162:32 *189:105 0
60 *169:12 *189:25 0
61 *176:34 *189:36 0
62 *179:16 *466:A 8.00842e-05
63 *181:8 *189:36 0.0009166
64 *181:16 *189:36 0.000128576
65 *181:16 *189:49 0
66 *185:16 *423:B 0
67 *185:16 *189:36 0
68 *185:16 *189:49 0
69 *185:30 *189:49 0.00102278
70 *185:30 *189:51 0.000543631
71 *185:30 *189:57 0.000384144
*RES
1 *467:X *189:6 20.3502 
2 *189:6 *189:8 1.1845 
3 *189:8 *189:10 8.1061 
4 *189:10 *422:A2 20.3193 
5 *189:10 *189:25 42.1527 
6 *189:25 *421:B 20 
7 *189:8 *189:36 44.7998 
8 *189:36 *423:B 20.5356 
9 *189:36 *189:49 26.4787 
10 *189:49 *189:51 2.575 
11 *189:51 *189:57 22.5853 
12 *189:57 *415:B 20 
13 *189:57 *416:A2 24.4496 
14 *189:51 *428:A2 41.6171 
15 *189:49 *466:A 40.5356 
16 *189:6 *189:105 42.5853 
17 *189:105 *424:A2 20 
*END

*D_NET *190 0.0103158
*CONN
*I *361:A I *D sg13g2_and2_1
*I *467:A I *D sg13g2_buf_1
*I *425:B I *D sg13g2_nand2_1
*I *426:A2 I *D sg13g2_o21ai_1
*I *468:X O *D sg13g2_buf_1
*CAP
1 *361:A 0
2 *467:A 3.9505e-05
3 *425:B 0
4 *426:A2 0.000159943
5 *468:X 6.04353e-05
6 *190:41 0.000785008
7 *190:29 0.00102876
8 *190:16 0.000421332
9 *190:12 0.00201361
10 *190:8 0.00201691
11 *426:A2 *198:87 0
12 *190:8 *204:10 0.000285866
13 *190:41 *198:87 0
14 *426:B1 *426:A2 1.54556e-05
15 *426:B1 *190:41 0
16 *426:A1 *426:A2 0.000241907
17 *443:D *426:A2 0
18 *444:D *190:41 4.79124e-05
19 *459:A *190:41 0
20 *494:A *190:41 0
21 *44:8 *190:16 7.30101e-05
22 *44:8 *190:29 0.000338564
23 *50:60 *190:12 0.000212938
24 *54:10 *190:8 0.000285866
25 *69:10 *426:A2 0
26 *152:37 *190:41 0
27 *152:62 *190:12 0
28 *154:12 *190:41 0
29 *162:32 *467:A 6.46834e-05
30 *162:32 *190:41 0.000434697
31 *167:26 *190:41 0.000440845
32 *176:34 *190:12 0
33 *176:34 *190:16 2.14736e-05
34 *176:34 *190:29 0.000686002
35 *189:8 *467:A 1.54008e-05
36 *189:8 *190:41 0.000161004
37 *189:10 *190:41 0.000273693
38 *189:105 *467:A 6.46834e-05
39 *189:105 *190:29 0.000126276
*RES
1 *468:X *190:8 41.339 
2 *190:8 *190:12 40.6515 
3 *190:12 *190:16 20.5974 
4 *190:16 *426:A2 41.6171 
5 *190:16 *190:29 23.3166 
6 *190:29 *190:41 48.2915 
7 *190:41 *425:B 20 
8 *190:29 *467:A 20.5356 
9 *190:8 *361:A 40 
*END

*D_NET *191 0.018144
*CONN
*I *336:B I *D sg13g2_nand2_1
*I *323:B I *D sg13g2_nand2_1
*I *321:B I *D sg13g2_nand2_1
*I *322:B I *D sg13g2_nand2_1
*I *320:B I *D sg13g2_nand2_1
*I *337:B I *D sg13g2_nand2_1
*I *338:B I *D sg13g2_nand2_1
*I *339:B I *D sg13g2_nand2_1
*I *469:X O *D sg13g2_buf_1
*CAP
1 *336:B 7.10919e-05
2 *323:B 0.000731275
3 *321:B 5.0578e-05
4 *322:B 1.18928e-05
5 *320:B 5.40084e-05
6 *337:B 0
7 *338:B 0.000444149
8 *339:B 0
9 *469:X 4.81607e-05
10 *191:94 0.000893908
11 *191:90 0.00153768
12 *191:28 0.00141362
13 *191:18 0.00106862
14 *191:14 0.000240259
15 *191:12 0.000265554
16 *191:10 0.000486825
17 *191:8 0.00176398
18 *323:B *336:A 0.00012838
19 *323:B *204:18 0.000125963
20 *338:B *339:A 0.000306545
21 *338:B *206:35 0
22 *191:28 *197:38 0
23 dac_code[5] *320:B 4.19117e-05
24 dac_code[5] *191:28 0
25 hold *191:8 8.00842e-05
26 result[7] *191:28 0
27 *320:A *320:B 0
28 *388:A0 *191:90 0.000161631
29 *389:A1 *191:90 4.77425e-05
30 *389:A2 *191:90 0
31 *433:CLK *191:90 0
32 *469:A *191:90 0.00134144
33 *492:A *321:B 0
34 *496:A *191:90 0.000112441
35 *14:18 *191:28 0
36 *30:18 *338:B 0
37 *31:14 *191:28 7.98406e-05
38 *34:9 *191:28 0
39 *37:10 *338:B 9.72993e-05
40 *37:10 *191:28 1.54008e-05
41 *42:18 *191:90 0.00202217
42 *115:8 *323:B 0.000340113
43 *115:8 *191:94 0.000179473
44 *131:8 *323:B 0.000972731
45 *144:47 *323:B 0.000338264
46 *144:58 *323:B 0
47 *144:58 *191:94 0
48 *154:65 *191:90 0
49 *161:26 *191:14 0
50 *161:26 *191:18 0
51 *162:32 *336:B 5.27601e-05
52 *162:32 *191:90 0
53 *163:76 *191:18 0
54 *167:22 *191:28 4.78195e-05
55 *169:12 *191:10 0.000850895
56 *169:12 *191:12 0.000528565
57 *169:12 *191:14 0.000211527
58 *169:12 *191:18 0.000178959
59 *169:12 *191:90 0.000160341
60 *170:12 *191:10 0
61 *170:12 *191:14 0
62 *173:8 *191:12 0.000229583
63 *180:16 *191:28 0
64 *187:74 *323:B 0
65 *187:89 *323:B 0
66 *188:54 *338:B 0
67 *188:60 *338:B 0
68 *189:25 *191:10 0.000181192
69 *189:25 *191:90 0.000229351
*RES
1 *469:X *191:8 40.5356 
2 *191:8 *191:10 4.0582 
3 *191:10 *191:12 2.575 
4 *191:12 *191:14 1.0918 
5 *191:14 *191:18 21.0918 
6 *191:18 *191:28 49.0846 
7 *191:28 *339:B 20 
8 *191:28 *338:B 24.4496 
9 *191:18 *337:B 20 
10 *191:14 *320:B 40.6 
11 *191:12 *322:B 40.1056 
12 *191:10 *321:B 40.4687 
13 *191:8 *191:90 37.4379 
14 *191:90 *191:94 21.0918 
15 *191:94 *323:B 48.8271 
16 *191:94 *336:B 40.703 
*END

*D_NET *192 0.00557123
*CONN
*I *383:B1 I *D sg13g2_a21oi_1
*I *368:B1 I *D sg13g2_o21ai_1
*I *333:A I *D sg13g2_or3_1
*I *369:A1 I *D sg13g2_o21ai_1
*I *331:A I *D sg13g2_nor2_1
*I *406:A I *D sg13g2_nand3_1
*I *400:A I *D sg13g2_nand2_1
*I *332:A I *D sg13g2_nor2_1
*I *470:X O *D sg13g2_buf_1
*CAP
1 *383:B1 0.000116247
2 *368:B1 2.48096e-05
3 *333:A 0
4 *369:A1 7.13756e-05
5 *331:A 0
6 *406:A 0.00013579
7 *400:A 0
8 *332:A 0.000108791
9 *470:X 6.12177e-05
10 *192:57 0.000241162
11 *192:44 0.000411399
12 *192:40 0.00034377
13 *192:31 0.000237948
14 *192:20 0.000352219
15 *192:14 0.000727975
16 *192:8 0.000637203
17 *332:A *194:33 0.000126443
18 *332:A *195:24 0
19 *383:B1 *195:12 0
20 *406:A *194:74 0.000126146
21 *192:14 *195:12 0
22 *192:40 *333:B 0.000239916
23 *192:40 *194:27 0
24 *192:44 *194:74 5.18162e-05
25 *192:57 *331:B 0
26 *192:57 *333:C 1.54008e-05
27 *393:A *368:B1 4.77425e-05
28 *393:A *192:14 0.00024211
29 *74:10 *192:57 0.000207923
30 *76:19 *192:57 0
31 *79:57 *406:A 0
32 *79:57 *192:44 0
33 *98:6 *192:14 0.000209829
34 *99:16 *192:14 0
35 *99:16 *192:20 0.000497251
36 *99:16 *192:40 0.000336747
37 *99:16 *192:57 0
38 *110:8 *192:14 0
39 *110:8 *192:20 0
*RES
1 *470:X *192:8 40.5356 
2 *192:8 *192:14 24.4393 
3 *192:14 *192:20 23.1415 
4 *192:20 *332:A 41.0918 
5 *192:20 *192:31 20 
6 *192:31 *400:A 20 
7 *192:31 *192:40 2.6162 
8 *192:40 *192:44 21.0918 
9 *192:44 *406:A 41.339 
10 *192:44 *192:57 21.8334 
11 *192:57 *331:A 20 
12 *192:57 *369:A1 20.8446 
13 *192:40 *333:A 20 
14 *192:14 *368:B1 20.3193 
15 *192:8 *383:B1 41.0918 
*END

*D_NET *193 0.00741711
*CONN
*I *349:A I *D sg13g2_nor2_1
*I *344:A_N I *D sg13g2_nand2b_1
*I *371:A I *D sg13g2_nand2_1
*I *481:X O *D sg13g2_buf_1
*CAP
1 *349:A 0.00058424
2 *344:A_N 2.60565e-05
3 *371:A 5.44695e-05
4 *481:X 0.000298567
5 *193:39 0.000680073
6 *193:24 0.000124247
7 *193:22 0.00190003
8 *193:10 0.0021986
9 *344:A_N *438:RESET_B 4.77425e-05
10 *349:A *438:RESET_B 0.000225896
11 *349:A *208:8 0
12 *349:A *210:77 0
13 *193:10 *206:59 0
14 *344:B *344:A_N 4.77425e-05
15 *344:B *349:A 0.000273639
16 *359:B_N *349:A 0
17 *371:B *371:A 6.37961e-05
18 *414:A1 *371:A 0
19 *432:CLK *193:10 0.000176657
20 *512:B *193:10 0
21 *40:26 *193:10 4.79124e-05
22 *41:16 *193:22 0
23 *80:6 *349:A 0
24 *84:10 *371:A 0
25 *84:10 *193:39 0
26 *85:8 *349:A 0.000274638
27 *155:12 *371:A 6.61705e-05
28 *155:12 *193:39 0.000157909
29 *179:28 *193:10 0
30 *186:14 *193:22 0.000168725
31 *187:51 *193:10 0
32 *187:74 *193:10 0
*RES
1 *481:X *193:10 42.5235 
2 *193:10 *193:22 41.1253 
3 *193:22 *193:24 20 
4 *193:24 *371:A 40.6026 
5 *193:24 *193:39 20.8446 
6 *193:39 *344:A_N 20.3193 
7 *193:39 *349:A 25.9637 
*END

*D_NET *194 0.00770301
*CONN
*I *363:B I *D sg13g2_or2_1
*I *333:C I *D sg13g2_or3_1
*I *331:B I *D sg13g2_nor2_1
*I *406:C I *D sg13g2_nand3_1
*I *400:B I *D sg13g2_nand2_1
*I *381:A1 I *D sg13g2_a21oi_1
*I *382:A I *D sg13g2_and3_1
*I *364:B I *D sg13g2_nand2_1
*I *471:X O *D sg13g2_buf_1
*CAP
1 *363:B 4.65541e-05
2 *333:C 3.18632e-05
3 *331:B 0.00019074
4 *406:C 0
5 *400:B 0
6 *381:A1 0
7 *382:A 0.000178307
8 *364:B 0.000273104
9 *471:X 0
10 *194:74 0.000292622
11 *194:66 0.000275533
12 *194:52 0.000395783
13 *194:33 0.000737082
14 *194:27 0.000264808
15 *194:25 0.0012462
16 *194:21 0.00119873
17 *194:4 0.000422685
18 *194:25 *195:18 0
19 *194:25 *195:20 0
20 *194:25 *195:24 0
21 *194:27 *332:B 0
22 *194:27 *333:B 0
23 *194:27 *406:B 0
24 *194:66 *333:B 0
25 *194:66 *406:B 0
26 *194:74 *406:B 4.76456e-05
27 *332:A *194:33 0.000126443
28 *365:C *363:B 4.75212e-05
29 *365:D *363:B 7.9885e-05
30 *365:D *364:B 0.000177501
31 *365:D *194:21 0
32 *406:A *194:74 0.000126146
33 *413:A2 *331:B 0
34 *471:A *194:25 0
35 *73:10 *363:B 0
36 *74:10 *331:B 0.000207923
37 *74:10 *382:A 0
38 *74:10 *194:33 0
39 *74:10 *194:74 4.77425e-05
40 *75:8 *382:A 7.31655e-05
41 *75:8 *194:33 0.000212388
42 *75:12 *382:A 0.000143449
43 *75:18 *382:A 0
44 *95:6 *364:B 0
45 *124:10 *194:33 1.54008e-05
46 *129:31 *194:52 0.000596343
47 *144:33 *194:52 0.00018022
48 *150:35 *194:25 0
49 *151:10 *364:B 0
50 *151:10 *194:21 0
51 *157:40 *382:A 0
52 *171:14 *194:52 0
53 *192:40 *194:27 0
54 *192:44 *194:74 5.18162e-05
55 *192:57 *331:B 0
56 *192:57 *333:C 1.54008e-05
*RES
1 *471:X *194:4 20 
2 *194:4 *364:B 22.9664 
3 *194:4 *194:21 21.3802 
4 *194:21 *194:25 28.5078 
5 *194:25 *194:27 0.9682 
6 *194:27 *194:33 22.1527 
7 *194:33 *382:A 41.7819 
8 *194:33 *194:52 44.6247 
9 *194:52 *381:A1 40 
10 *194:27 *400:B 20 
11 *194:25 *194:66 1.1845 
12 *194:66 *194:74 41.1639 
13 *194:74 *406:C 20 
14 *194:74 *331:B 21.8334 
15 *194:66 *333:C 20.3193 
16 *194:21 *363:B 40.5356 
*END

*D_NET *195 0.00924801
*CONN
*I *363:A I *D sg13g2_or2_1
*I *368:A1 I *D sg13g2_o21ai_1
*I *393:B_N I *D sg13g2_nor2b_1
*I *401:A1 I *D sg13g2_o21ai_1
*I *362:S I *D sg13g2_mux2_1
*I *333:B I *D sg13g2_or3_1
*I *406:B I *D sg13g2_nand3_1
*I *332:B I *D sg13g2_nor2_1
*I *472:X O *D sg13g2_buf_1
*CAP
1 *363:A 0.000116532
2 *368:A1 0
3 *393:B_N 2.60565e-05
4 *401:A1 0.000107897
5 *362:S 0.000392751
6 *333:B 0.000209073
7 *406:B 0.000170286
8 *332:B 4.71015e-05
9 *472:X 4.72017e-05
10 *195:68 0.000573994
11 *195:62 0.000467171
12 *195:24 0.000414675
13 *195:20 0.000607317
14 *195:18 0.000816227
15 *195:12 0.000465185
16 *195:8 0.000379268
17 *332:A *195:24 0
18 *364:A *195:8 0
19 *383:B1 *195:12 0
20 *393:A *195:68 0.000565713
21 *399:A *401:A1 0
22 *401:B1 *362:S 0
23 *407:A_N *401:A1 1.54008e-05
24 *413:A2 *406:B 7.99179e-05
25 *471:A *363:A 0
26 *471:A *195:12 0.000106151
27 *472:A *363:A 0.000182109
28 *50:52 *362:S 0
29 *50:52 *393:B_N 4.77425e-05
30 *73:10 *195:8 8.03692e-05
31 *73:22 *195:68 0
32 *74:10 *406:B 0
33 *74:10 *195:24 0
34 *76:19 *362:S 0.000339683
35 *94:8 *195:8 0
36 *98:14 *393:B_N 4.77425e-05
37 *98:14 *401:A1 0.000392195
38 *98:14 *195:68 5.15366e-05
39 *98:27 *195:68 0
40 *99:16 *195:12 0.000211817
41 *99:16 *195:18 0.000178047
42 *99:16 *195:20 0
43 *102:26 *332:B 7.97988e-05
44 *102:26 *401:A1 0
45 *102:26 *406:B 0.000192877
46 *124:10 *401:A1 3.23417e-05
47 *149:10 *363:A 5.30319e-05
48 *150:35 *195:12 0.000607002
49 *150:35 *195:18 7.48209e-05
50 *150:35 *195:62 3.23417e-05
51 *150:35 *195:68 1.54008e-05
52 *152:8 *195:68 0.00011236
53 *171:14 *401:A1 0.000392195
54 *171:14 *195:68 0.00022912
55 *192:14 *195:12 0
56 *192:40 *333:B 0.000239916
57 *194:25 *195:18 0
58 *194:25 *195:20 0
59 *194:25 *195:24 0
60 *194:27 *332:B 0
61 *194:27 *333:B 0
62 *194:27 *406:B 0
63 *194:66 *333:B 0
64 *194:66 *406:B 0
65 *194:74 *406:B 4.76456e-05
*RES
1 *472:X *195:8 40.5356 
2 *195:8 *195:12 3.6359 
3 *195:12 *195:18 2.2557 
4 *195:18 *195:20 1.5862 
5 *195:20 *195:24 21.5862 
6 *195:24 *332:B 20.5356 
7 *195:24 *406:B 21.8334 
8 *195:20 *333:B 41.9364 
9 *195:18 *362:S 43.5638 
10 *195:12 *195:62 20.3193 
11 *195:62 *195:68 24.8719 
12 *195:68 *401:A1 42.1527 
13 *195:68 *393:B_N 40.3193 
14 *195:62 *368:A1 20 
15 *195:8 *363:A 41.5862 
*END

*D_NET *196 0.00797778
*CONN
*I *343:C I *D sg13g2_nor3_1
*I *325:A I *D sg13g2_nor2b_1
*I *353:B2 I *D sg13g2_a22oi_1
*I *365:A I *D sg13g2_nand4_1
*I *330:A I *D sg13g2_nand2_1
*I *342:A I *D sg13g2_nand3_1
*I *316:A I *D sg13g2_inv_1
*I *326:A_N I *D sg13g2_nand3b_1
*I *473:X O *D sg13g2_buf_1
*CAP
1 *343:C 0.000898237
2 *325:A 0
3 *353:B2 5.47757e-05
4 *365:A 0
5 *330:A 5.99878e-05
6 *342:A 3.34444e-05
7 *316:A 3.34444e-05
8 *326:A_N 5.47952e-05
9 *473:X 0.000104998
10 *196:70 0.000102746
11 *196:57 0.000528413
12 *196:42 0.00056521
13 *196:40 0.000474111
14 *196:36 0.000338972
15 *196:21 0.000384833
16 *196:17 0.00133411
17 *196:6 0.000330002
18 *326:A_N *473:A 0
19 *326:A_N *209:35 0
20 *343:C *347:A 1.54008e-05
21 *343:C *209:48 0
22 *343:C *209:71 1.53666e-05
23 *196:17 *329:A 4.77079e-05
24 *196:17 *209:35 0
25 *196:21 *209:48 0
26 *196:21 *209:63 0
27 *196:21 *210:23 0
28 *196:36 *209:63 0
29 *196:57 *199:45 0.000392344
30 *196:57 *199:47 0
31 *196:57 *209:23 0
32 *330:B *330:A 0
33 *334:B *196:42 0
34 *342:B *196:57 0.000181192
35 *346:A *343:C 0
36 *351:A1 *343:C 0
37 *351:A1 *196:17 0
38 *352:B *343:C 0
39 *353:A2 *196:36 1.54008e-05
40 *353:A2 *196:40 0.000274359
41 *356:B *343:C 4.68099e-05
42 *358:B1 *316:A 4.77425e-05
43 *358:B1 *196:36 1.54008e-05
44 *358:B1 *196:40 0
45 *358:A2 *196:17 0
46 *83:6 *343:C 0.000239926
47 *83:21 *343:C 8.005e-05
48 *86:10 *343:C 7.9966e-05
49 *88:6 *353:B2 1.54008e-05
50 *88:6 *196:42 0
51 *88:20 *330:A 0
52 *88:20 *196:57 0
53 *96:8 *196:70 0
54 *146:17 *196:21 0.000176399
55 *146:17 *196:36 0.000159096
56 *148:12 *196:70 0.00018128
57 *148:25 *196:57 0.00055109
58 *176:18 *342:A 4.77425e-05
59 *176:18 *196:42 9.7025e-05
*RES
1 *473:X *196:6 21.339 
2 *196:6 *326:A_N 20.5356 
3 *196:6 *196:17 1.9673 
4 *196:17 *196:21 22.3278 
5 *196:21 *316:A 40.3193 
6 *196:21 *196:36 21.1639 
7 *196:36 *196:40 2.6162 
8 *196:40 *196:42 1.6171 
9 *196:42 *342:A 20.3193 
10 *196:42 *196:57 44.9337 
11 *196:57 *330:A 20.5356 
12 *196:57 *196:70 41.339 
13 *196:70 *365:A 20 
14 *196:40 *353:B2 20.6695 
15 *196:36 *325:A 20 
16 *196:17 *343:C 28.8683 
*END

*D_NET *197 0.0168571
*CONN
*I *435:RESET_B I *D sg13g2_dfrbpq_1
*I *445:RESET_B I *D sg13g2_dfrbpq_1
*I *441:RESET_B I *D sg13g2_dfrbpq_1
*I *446:RESET_B I *D sg13g2_dfrbpq_1
*I *442:RESET_B I *D sg13g2_dfrbpq_1
*I *443:RESET_B I *D sg13g2_dfrbpq_1
*I *440:RESET_B I *D sg13g2_dfrbpq_1
*I *455:RESET_B I *D sg13g2_dfrbpq_1
*I *474:X O *D sg13g2_buf_1
*CAP
1 *435:RESET_B 0
2 *445:RESET_B 0
3 *441:RESET_B 0
4 *446:RESET_B 0
5 *442:RESET_B 0.0001697
6 *443:RESET_B 0
7 *440:RESET_B 0
8 *455:RESET_B 0
9 *474:X 0.000169243
10 *197:123 0.000314001
11 *197:110 0
12 *197:101 0.00049702
13 *197:70 0.000385408
14 *197:62 0.00159722
15 *197:56 0.00129977
16 *197:38 0.000538121
17 *197:28 0.000792995
18 *197:18 0.000656341
19 *197:16 0.000795948
20 *197:14 0.000341114
21 *197:12 0.00127772
22 *197:8 0.000946963
23 *197:101 *206:35 0
24 *197:123 *203:16 0
25 done *197:56 4.77425e-05
26 done *197:62 0.000112426
27 result[3] *197:38 0.000241505
28 result[4] *197:38 0
29 *341:A2 *197:28 7.31655e-05
30 *381:B1 *197:8 0
31 *455:CLK *197:38 0.000338585
32 *504:A *197:123 0
33 *9:10 *197:56 0
34 *9:10 *197:101 0
35 *10:14 *197:28 2.14736e-05
36 *10:14 *197:62 0
37 *19:14 *197:70 0.00070446
38 *20:12 *197:70 0.00070405
39 *26:14 *197:12 0
40 *28:12 *197:12 0
41 *29:14 *197:12 3.25057e-05
42 *29:14 *197:14 0.000361802
43 *29:14 *197:16 0.000294159
44 *29:14 *197:18 0.000261921
45 *29:14 *197:28 0.000145836
46 *32:26 *197:28 0
47 *32:26 *197:62 0
48 *33:10 *197:16 0
49 *33:10 *197:18 0
50 *46:20 *197:12 0.000554828
51 *46:26 *197:12 0.000803532
52 *46:26 *197:14 0.000377011
53 *46:26 *197:16 0.000244106
54 *78:10 *197:101 0
55 *144:33 *197:8 0.000333742
56 *153:8 *197:101 0.000419195
57 *153:12 *197:101 7.30101e-05
58 *162:32 *442:RESET_B 0
59 *162:32 *197:62 0
60 *168:12 *197:56 0
61 *168:12 *197:62 0
62 *168:12 *197:101 0
63 *174:22 *197:123 4.77425e-05
64 *177:10 *197:123 0
65 *180:16 *197:38 0
66 *181:8 *197:70 7.44237e-05
67 *183:18 *197:123 4.77425e-05
68 *184:10 *197:123 0.00076053
69 *186:14 *197:12 0
70 *188:54 *197:101 0
71 *191:28 *197:38 0
*RES
1 *474:X *197:8 41.5862 
2 *197:8 *197:12 28.9713 
3 *197:12 *197:14 2.4823 
4 *197:14 *197:16 2.0497 
5 *197:16 *197:18 1.8334 
6 *197:18 *197:28 42.5029 
7 *197:28 *197:38 45.1912 
8 *197:38 *455:RESET_B 20 
9 *197:28 *440:RESET_B 20 
10 *197:18 *197:56 42.1527 
11 *197:56 *197:62 28.0237 
12 *197:62 *197:70 44.9955 
13 *197:70 *443:RESET_B 40 
14 *197:62 *442:RESET_B 41.5347 
15 *197:56 *446:RESET_B 20 
16 *197:16 *197:101 44.8719 
17 *197:101 *441:RESET_B 20 
18 *197:14 *197:110 40 
19 *197:110 *445:RESET_B 20 
20 *197:12 *197:123 43.8831 
21 *197:123 *435:RESET_B 20 
*END

*D_NET *198 0.011659
*CONN
*I *474:A I *D sg13g2_buf_1
*I *433:RESET_B I *D sg13g2_dfrbpq_1
*I *434:RESET_B I *D sg13g2_dfrbpq_1
*I *444:RESET_B I *D sg13g2_dfrbpq_1
*I *436:RESET_B I *D sg13g2_dfrbpq_1
*I *439:RESET_B I *D sg13g2_dfrbpq_1
*I *432:RESET_B I *D sg13g2_dfrbpq_1
*I *475:X O *D sg13g2_buf_1
*CAP
1 *474:A 2.73502e-05
2 *433:RESET_B 0
3 *434:RESET_B 0
4 *444:RESET_B 0
5 *436:RESET_B 0.00011461
6 *439:RESET_B 0.000501272
7 *432:RESET_B 0.000240996
8 *475:X 6.30383e-05
9 *198:87 0.000330511
10 *198:79 0.000677951
11 *198:69 0.000547881
12 *198:67 0.00110056
13 *198:50 0.00131669
14 *198:37 0.000803238
15 *198:35 0.000716794
16 *198:21 0.000802155
17 *198:6 0.000362045
18 *198:79 *204:22 0
19 *381:B1 *432:RESET_B 0
20 *390:A *198:67 0.000596847
21 *391:B1 *198:67 7.9947e-05
22 *392:A *198:79 0
23 *392:B *198:67 0
24 *398:B1 *198:69 0
25 *405:A *432:RESET_B 0
26 *405:A *198:35 3.98616e-05
27 *416:A1 *439:RESET_B 0
28 *416:A1 *198:35 0
29 *426:B1 *198:87 0
30 *426:A2 *198:87 0
31 *432:CLK *198:35 0.000176405
32 *434:D *198:69 0
33 *434:D *198:79 0
34 *443:D *198:87 0
35 *444:D *198:87 0
36 *481:A *198:35 0
37 *497:A *198:35 4.77425e-05
38 *498:A *439:RESET_B 0
39 *19:14 *198:79 0.000309001
40 *20:8 *198:67 0
41 *28:8 *198:50 0
42 *36:15 *439:RESET_B 0
43 *46:45 *198:50 0
44 *46:45 *198:67 0
45 *61:8 *198:67 0
46 *65:10 *439:RESET_B 0.000339327
47 *69:10 *198:87 7.98053e-05
48 *73:68 *198:21 0.000236521
49 *101:6 *474:A 0
50 *101:6 *198:35 0
51 *101:23 *198:35 0
52 *101:31 *198:67 0
53 *102:49 *432:RESET_B 0
54 *116:8 *198:67 0
55 *128:8 *198:35 7.34121e-05
56 *132:10 *198:50 0.000545919
57 *132:10 *198:67 0.000105719
58 *137:10 *439:RESET_B 0.000436683
59 *144:33 *198:21 0.000236521
60 *162:32 *198:87 0
61 *166:10 *198:69 0
62 *166:10 *198:79 0
63 *174:10 *198:67 0.000233188
64 *179:16 *436:RESET_B 0.000186807
65 *179:28 *432:RESET_B 4.77425e-05
66 *179:28 *198:35 0
67 *182:24 *432:RESET_B 0
68 *182:24 *198:35 0
69 *186:20 *439:RESET_B 0
70 *186:20 *198:35 0.000282467
71 *187:89 *198:67 0
72 *190:41 *198:87 0
*RES
1 *475:X *198:6 20.5356 
2 *198:6 *432:RESET_B 22.1836 
3 *198:6 *198:21 41.1201 
4 *198:21 *198:35 46.9448 
5 *198:35 *198:37 20 
6 *198:37 *439:RESET_B 44.9955 
7 *198:37 *198:50 3.3166 
8 *198:50 *436:RESET_B 41.3493 
9 *198:50 *198:67 29.2597 
10 *198:67 *198:69 0.5148 
11 *198:69 *198:79 43.2801 
12 *198:79 *198:87 43.2651 
13 *198:87 *444:RESET_B 20 
14 *198:69 *434:RESET_B 20 
15 *198:67 *433:RESET_B 20 
16 *198:21 *474:A 20.2858 
*END

*D_NET *199 0.0128251
*CONN
*I *430:RESET_B I *D sg13g2_dfrbpq_1
*I *438:RESET_B I *D sg13g2_dfrbpq_1
*I *447:RESET_B I *D sg13g2_dfrbpq_1
*I *453:RESET_B I *D sg13g2_dfrbpq_1
*I *452:RESET_B I *D sg13g2_dfrbpq_1
*I *454:RESET_B I *D sg13g2_dfrbpq_1
*I *437:RESET_B I *D sg13g2_dfrbpq_1
*I *431:RESET_B I *D sg13g2_dfrbpq_1
*I *476:X O *D sg13g2_buf_1
*CAP
1 *430:RESET_B 0.000250118
2 *438:RESET_B 0.000687374
3 *447:RESET_B 0.000809125
4 *453:RESET_B 0
5 *452:RESET_B 3.06411e-05
6 *454:RESET_B 0.000170809
7 *437:RESET_B 0.00015198
8 *431:RESET_B 0.000190523
9 *476:X 0.000473906
10 *199:63 0.000839334
11 *199:47 0.000580393
12 *199:45 0.00127381
13 *199:37 0.00182744
14 *199:28 0.000807483
15 *199:22 0.000913594
16 *430:RESET_B *203:12 0
17 *431:RESET_B *203:12 0
18 *438:RESET_B *456:CLK 0.000501622
19 *447:RESET_B *450:RESET_B 0.000338843
20 *447:RESET_B *200:54 0
21 *199:22 *507:A 0
22 *199:45 *209:23 0
23 *199:45 *209:29 0
24 *324:B *438:RESET_B 0
25 *324:B *199:37 0
26 *342:B *199:45 0
27 *344:A_N *438:RESET_B 4.77425e-05
28 *349:A *438:RESET_B 0.000225896
29 *366:B2 *199:47 0
30 *366:A2 *199:47 0.000175917
31 *371:B *438:RESET_B 0
32 *374:A2 *199:28 0
33 *375:A1 *199:45 0
34 *412:A *437:RESET_B 0.00012929
35 *412:A *199:37 0.000112558
36 *414:B1 *438:RESET_B 0
37 *430:D *430:RESET_B 0
38 *452:D *454:RESET_B 0
39 *452:D *199:47 0
40 *453:D *199:47 0
41 *454:D *454:RESET_B 0
42 *477:A *430:RESET_B 0.000371932
43 *477:A *199:22 0.000436341
44 *46:8 *199:28 0
45 *46:18 *437:RESET_B 0.000112651
46 *50:16 *199:45 0.000128777
47 *50:44 *199:45 0.000371867
48 *79:8 *199:45 0.000182524
49 *79:47 *199:47 0
50 *88:6 *199:47 0
51 *88:20 *199:47 0
52 *97:10 *199:47 0
53 *100:17 *438:RESET_B 0
54 *100:17 *199:37 0
55 *147:8 *199:45 0
56 *150:29 *454:RESET_B 0
57 *150:29 *199:47 0
58 *155:72 *199:28 0
59 *156:10 *447:RESET_B 0
60 *156:12 *199:47 0
61 *156:38 *447:RESET_B 0
62 *156:45 *447:RESET_B 0
63 *176:14 *447:RESET_B 0
64 *176:14 *199:45 0
65 *176:28 *454:RESET_B 0
66 *176:28 *199:47 0
67 *176:58 *199:37 0
68 *176:58 *199:45 0
69 *182:41 *431:RESET_B 0
70 *182:41 *199:22 0
71 *186:10 *199:37 0
72 *187:10 *199:47 0.000111234
73 *187:28 *437:RESET_B 0
74 *187:28 *199:28 0.000179045
75 *196:57 *199:45 0.000392344
76 *196:57 *199:47 0
*RES
1 *476:X *431:RESET_B 41.9673 
2 *476:X *199:22 23.2651 
3 *199:22 *199:28 43.811 
4 *199:28 *437:RESET_B 21.6171 
5 *199:28 *199:37 2.9149 
6 *199:37 *199:45 49.785 
7 *199:45 *199:47 3.9964 
8 *199:47 *454:RESET_B 21.7454 
9 *199:47 *452:RESET_B 20.3502 
10 *199:45 *199:63 0.3502 
11 *199:63 *453:RESET_B 20 
12 *199:63 *447:RESET_B 26.003 
13 *199:37 *438:RESET_B 27.4572 
14 *199:22 *430:RESET_B 23.0797 
*END

*D_NET *200 0.00713908
*CONN
*I *449:RESET_B I *D sg13g2_dfrbpq_1
*I *450:RESET_B I *D sg13g2_dfrbpq_1
*I *448:RESET_B I *D sg13g2_dfrbpq_1
*I *451:RESET_B I *D sg13g2_dfrbpq_1
*I *456:RESET_B I *D sg13g2_dfrbpq_1
*I *477:X O *D sg13g2_buf_1
*CAP
1 *449:RESET_B 0
2 *450:RESET_B 0.000197441
3 *448:RESET_B 2.9262e-05
4 *451:RESET_B 0.000108821
5 *456:RESET_B 0.000236272
6 *477:X 0.000688078
7 *200:54 0.000694078
8 *200:37 0.00150954
9 *200:20 0.00154427
10 *450:RESET_B *207:14 0
11 *200:20 *203:6 0
12 *200:37 *208:14 0
13 *200:37 *209:77 0.000340178
14 *200:37 *210:69 0
15 *200:54 *210:59 0
16 *200:54 *211:12 0
17 *346:C *200:54 0
18 *350:A_N *200:37 0.000608826
19 *360:A *451:RESET_B 0
20 *360:A *200:20 0
21 *375:B1 *456:RESET_B 0
22 *447:RESET_B *450:RESET_B 0.000338843
23 *447:RESET_B *200:54 0
24 *447:D *200:54 0
25 *448:CLK *200:54 0
26 *477:A *456:RESET_B 0
27 *4:8 *200:37 0
28 *49:8 *200:37 0.000553426
29 *52:8 *200:37 0
30 *85:14 *200:37 0.000290042
31 *155:6 *200:20 0
32 *155:21 *200:20 0
33 *155:42 *456:RESET_B 0
34 *176:14 *450:RESET_B 0
*RES
1 *477:X *456:RESET_B 42.4926 
2 *477:X *200:20 24.8616 
3 *200:20 *451:RESET_B 21.3493 
4 *200:20 *200:37 32.8544 
5 *200:37 *448:RESET_B 40.3193 
6 *200:37 *200:54 24.9749 
7 *200:54 *450:RESET_B 22.266 
8 *200:54 *449:RESET_B 20 
*END

*D_NET *201 0.000648959
*CONN
*I *507:A I *D sg13g2_buf_1
*I *317:Y O *D sg13g2_inv_1
*CAP
1 *507:A 0.00032448
2 *317:Y 0.00032448
3 *507:A *203:12 0
4 clk_cmp *507:A 0
5 *477:A *507:A 0
6 *182:41 *507:A 0
7 *199:22 *507:A 0
*RES
1 *317:Y *507:A 43.5638 
*END

*D_NET *202 0.00152379
*CONN
*I *456:CLK I *D sg13g2_dfrbpq_1
*I *429:Y O *D sg13g2_inv_1
*CAP
1 *456:CLK 0.00031513
2 *429:Y 0.000195952
3 *202:8 0.000511082
4 *438:RESET_B *456:CLK 0.000501622
5 *100:17 *456:CLK 0
6 *155:12 *202:8 0
*RES
1 *429:Y *202:8 42.0806 
2 *202:8 *456:CLK 43.6977 
*END

*D_NET *203 0.00861895
*CONN
*I *319:A I *D sg13g2_inv_1
*I *506:A I *D sg13g2_buf_1
*I *438:Q O *D sg13g2_dfrbpq_1
*CAP
1 *319:A 6.68694e-05
2 *506:A 0
3 *438:Q 0.00031271
4 *203:16 0.00128337
5 *203:12 0.00336035
6 *203:6 0.00245656
7 clk_cmp *203:12 0
8 sample *203:12 0
9 *318:A *203:12 0
10 *327:A *203:12 0
11 *392:B *203:16 0
12 *415:A *203:16 0
13 *417:B *203:12 0
14 *428:A1 *203:16 0.000231532
15 *430:RESET_B *203:12 0
16 *430:D *203:12 0
17 *431:RESET_B *203:12 0
18 *431:D *203:12 0
19 *477:A *203:6 0
20 *477:A *203:12 0
21 *498:A *203:16 0
22 *507:A *203:12 0
23 *3:8 *203:16 0
24 *6:11 *203:12 0
25 *29:8 *203:16 0
26 *41:12 *203:12 0
27 *44:29 *203:16 0.000288103
28 *45:12 *203:16 0
29 *45:20 *203:16 0.000336992
30 *65:10 *203:16 0.000282467
31 *101:31 *203:16 0
32 *144:10 *203:12 0
33 *153:40 *203:16 0
34 *178:14 *203:16 0
35 *180:26 *203:16 0
36 *182:8 *203:16 0
37 *182:41 *203:12 0
38 *188:30 *203:12 0
39 *197:123 *203:16 0
40 *200:20 *203:6 0
*RES
1 *438:Q *203:6 23.5638 
2 *203:6 *203:12 44.0917 
3 *203:12 *203:16 32.463 
4 *203:16 *506:A 20 
5 *203:6 *319:A 20.8446 
*END

*D_NET *204 0.00918319
*CONN
*I *336:A I *D sg13g2_nand2_1
*I *508:A I *D sg13g2_buf_1
*I *313:Y O *D sg13g2_inv_1
*CAP
1 *336:A 4.49301e-05
2 *508:A 0
3 *313:Y 0.000758989
4 *204:28 0.00012762
5 *204:22 0.00136397
6 *204:18 0.00133214
7 *204:14 0.00133415
8 *204:10 0.00204228
9 *313:A *204:10 1.54008e-05
10 *323:B *336:A 0.00012838
11 *323:B *204:18 0.000125963
12 *366:A1 *204:10 0
13 *19:14 *204:22 0
14 *20:8 *336:A 0
15 *20:8 *204:18 0
16 *20:12 *204:22 0
17 *54:10 *204:10 0
18 *68:10 *204:28 0.000392644
19 *73:95 *204:14 0
20 *79:57 *204:10 0
21 *88:20 *204:10 0
22 *88:33 *204:10 0
23 *96:8 *204:10 0
24 *97:10 *204:10 0.000816424
25 *152:17 *204:14 0
26 *152:17 *204:22 0
27 *152:62 *204:14 0
28 *161:12 *204:28 0.000392347
29 *162:32 *204:28 0
30 *176:34 *204:14 0
31 *180:16 *204:28 0
32 *186:10 *204:10 0
33 *187:14 *204:10 0
34 *187:28 *204:10 0
35 *187:89 *204:18 2.20966e-05
36 *190:8 *204:10 0.000285866
37 *198:79 *204:22 0
*RES
1 *313:Y *204:10 47.8651 
2 *204:10 *204:14 34.1625 
3 *204:14 *204:18 20.5974 
4 *204:18 *204:22 33.7299 
5 *204:22 *204:28 42.3278 
6 *204:28 *508:A 20 
7 *204:18 *336:A 40.5974 
*END

*D_NET *205 0.00399192
*CONN
*I *509:A I *D sg13g2_buf_1
*I *339:A I *D sg13g2_nand2_1
*I *312:Y O *D sg13g2_inv_1
*CAP
1 *509:A 0.00015853
2 *339:A 0.000498732
3 *312:Y 0.000178726
4 *205:8 0.000835988
5 result[0] *509:A 0.00024127
6 *338:B *339:A 0.000306545
7 *341:A2 *339:A 0
8 *440:CLK *339:A 7.33256e-05
9 *455:CLK *339:A 0.000106064
10 *455:CLK *205:8 0.000179386
11 *10:14 *205:8 0.000396087
12 *30:18 *339:A 0
13 *32:26 *509:A 4.78853e-05
14 *40:50 *339:A 0
15 *66:10 *339:A 0.000495406
16 *66:10 *205:8 0.000473974
17 *167:22 *339:A 0
18 *180:16 *339:A 0
19 *188:60 *339:A 0
*RES
1 *312:Y *205:8 43.0694 
2 *205:8 *339:A 45.768 
3 *205:8 *509:A 41.6171 
*END

*D_NET *206 0.00687104
*CONN
*I *386:A1 I *D sg13g2_o21ai_1
*I *338:A I *D sg13g2_nand2_1
*I *510:A I *D sg13g2_buf_1
*I *311:Y O *D sg13g2_inv_1
*CAP
1 *386:A1 0
2 *338:A 0
3 *510:A 5.73416e-05
4 *311:Y 0.000453707
5 *206:59 0.000784914
6 *206:51 0.00094262
7 *206:35 0.000271817
8 *206:20 0.000677736
9 *206:12 0.000644577
10 *311:A *206:12 0.000177164
11 *338:B *206:35 0
12 *415:A *206:51 7.32394e-05
13 *428:B1 *206:12 8.02379e-05
14 *428:A1 *206:51 0
15 *428:A2 *206:12 0
16 *26:14 *206:59 0.000736716
17 *30:18 *206:20 0
18 *30:18 *206:35 0.000112426
19 *36:15 *206:59 0.000606159
20 *40:32 *206:59 0
21 *40:40 *510:A 0
22 *40:40 *206:20 0
23 *41:16 *206:59 0
24 *73:43 *206:59 0.000128167
25 *136:20 *206:35 0
26 *153:18 *206:12 1.54556e-05
27 *153:18 *206:20 0.000230195
28 *153:27 *206:12 0
29 *153:27 *206:51 0
30 *167:22 *510:A 0
31 *167:22 *206:20 0
32 *168:12 *206:35 0
33 *179:28 *206:59 0.000489761
34 *182:20 *206:59 0.000388804
35 *186:14 *206:59 0
36 *187:74 *206:59 0
37 *188:14 *206:12 0
38 *188:54 *206:35 0
39 *193:10 *206:59 0
40 *197:101 *206:35 0
*RES
1 *311:Y *206:12 42.7501 
2 *206:12 *206:20 23.3681 
3 *206:20 *510:A 20.5073 
4 *206:20 *206:35 42.5853 
5 *206:35 *338:A 20 
6 *311:Y *206:51 41.3184 
7 *206:51 *206:59 49.9086 
8 *206:59 *386:A1 40 
*END

*D_NET *207 0.00210112
*CONN
*I *314:A I *D sg13g2_inv_1
*I *357:B1 I *D sg13g2_o21ai_1
*I *450:Q O *D sg13g2_dfrbpq_1
*CAP
1 *314:A 0
2 *357:B1 0
3 *450:Q 0.000658599
4 *207:20 8.98804e-05
5 *207:14 0.000208218
6 *207:10 0.000776937
7 *207:10 *210:6 0
8 *207:10 *210:17 0
9 *207:10 *210:19 0
10 *207:10 *211:8 0
11 *207:14 *210:59 0
12 *207:20 *209:63 0
13 *207:20 *210:19 0
14 *449:D *207:10 0
15 *449:D *207:20 0.000287256
16 *450:RESET_B *207:14 0
17 *176:14 *207:14 8.02276e-05
*RES
1 *450:Q *207:10 42.8778 
2 *207:10 *207:14 21.1845 
3 *207:14 *207:20 41.339 
4 *207:20 *357:B1 20 
5 *207:14 *314:A 20 
*END

*D_NET *208 0.000695347
*CONN
*I *349:B I *D sg13g2_nor2_1
*I *359:A I *D sg13g2_nor2b_1
*I *451:Q O *D sg13g2_dfrbpq_1
*CAP
1 *349:B 0
2 *359:A 0
3 *451:Q 0.00018703
4 *208:14 0.000160644
5 *208:8 0.000347673
6 *349:A *208:8 0
7 *85:8 *208:8 0
8 *200:37 *208:14 0
*RES
1 *451:Q *208:8 21.9982 
2 *208:8 *208:14 41.8334 
3 *208:14 *359:A 20 
4 *208:8 *349:B 20 
*END

*D_NET *209 0.0109443
*CONN
*I *353:A1 I *D sg13g2_a22oi_1
*I *326:B I *D sg13g2_nand3b_1
*I *345:B1 I *D sg13g2_a21oi_1
*I *347:B_N I *D sg13g2_nor2b_1
*I *343:B I *D sg13g2_nor3_1
*I *315:A I *D sg13g2_inv_1
*I *329:B I *D sg13g2_or2_1
*I *328:B I *D sg13g2_nor2_1
*I *447:Q O *D sg13g2_dfrbpq_1
*CAP
1 *353:A1 4.62554e-05
2 *326:B 0
3 *345:B1 4.51858e-05
4 *347:B_N 0
5 *343:B 0
6 *315:A 9.99476e-05
7 *329:B 2.88135e-05
8 *328:B 0.000395187
9 *447:Q 0.00014334
10 *209:77 0.000112736
11 *209:71 0.000691098
12 *209:63 0.00101633
13 *209:48 0.000823243
14 *209:35 0.000694155
15 *209:29 0.000986321
16 *209:23 0.0011397
17 *209:12 0.0014487
18 *209:8 0.000754905
19 *328:B *328:A 0
20 *345:B1 *210:59 8.00842e-05
21 *209:8 *211:8 0
22 *209:12 *328:A 0
23 *209:12 *210:6 0
24 *209:23 *210:17 0
25 *209:29 *326:C 6.39133e-05
26 *209:29 *210:33 7.31628e-05
27 *209:35 *329:A 0
28 *209:63 *210:59 0.000339135
29 *209:71 *211:16 0.000314851
30 *209:71 *211:18 0.000338983
31 *326:A_N *209:35 0
32 *343:C *209:48 0
33 *343:C *209:71 1.53666e-05
34 *352:A *209:71 0
35 *352:B *315:A 0
36 *353:B1 *353:A1 4.77425e-05
37 *358:B1 *209:63 0.000145031
38 *358:A2 *315:A 0.000144894
39 *449:D *209:63 0
40 *449:D *209:71 0
41 *50:44 *209:29 0
42 *79:8 *209:29 0
43 *81:10 *209:71 0
44 *86:10 *209:71 7.97988e-05
45 *89:6 *209:63 0
46 *90:8 *209:48 0
47 *90:8 *209:63 0
48 *142:8 *209:48 0.000180387
49 *152:68 *209:23 0
50 *152:68 *209:29 0
51 *152:68 *209:35 0
52 *156:8 *209:12 0.000274781
53 *156:10 *328:B 0
54 *156:10 *209:12 0
55 *156:12 *328:B 0
56 *156:38 *209:12 0
57 *156:45 *209:12 0
58 *176:14 *353:A1 8.00842e-05
59 *196:17 *209:35 0
60 *196:21 *209:48 0
61 *196:21 *209:63 0
62 *196:36 *209:63 0
63 *196:57 *209:23 0
64 *199:45 *209:23 0
65 *199:45 *209:29 0
66 *200:37 *209:77 0.000340178
67 *207:20 *209:63 0
*RES
1 *447:Q *209:8 41.5862 
2 *209:8 *209:12 25.7268 
3 *209:12 *328:B 23.5638 
4 *209:12 *209:23 24.7998 
5 *209:23 *209:29 25.5826 
6 *209:29 *209:35 3.4299 
7 *209:35 *329:B 20.3193 
8 *209:35 *209:48 22.8325 
9 *209:48 *315:A 40.9682 
10 *209:48 *209:63 23.8522 
11 *209:63 *209:71 45.768 
12 *209:71 *209:77 41.5862 
13 *209:77 *343:B 20 
14 *209:71 *347:B_N 20 
15 *209:63 *345:B1 20.5356 
16 *209:29 *326:B 20 
17 *209:23 *353:A1 40.5356 
*END

*D_NET *210 0.0100545
*CONN
*I *325:B_N I *D sg13g2_nor2b_1
*I *345:A1 I *D sg13g2_a21oi_1
*I *347:A I *D sg13g2_nor2b_1
*I *343:A I *D sg13g2_nor3_1
*I *329:A I *D sg13g2_or2_1
*I *326:C I *D sg13g2_nand3b_1
*I *328:A I *D sg13g2_nor2_1
*I *448:Q O *D sg13g2_dfrbpq_1
*CAP
1 *325:B_N 0
2 *345:A1 2.77263e-05
3 *347:A 0.000104403
4 *343:A 0
5 *329:A 3.31692e-05
6 *326:C 6.27936e-05
7 *328:A 0.00062993
8 *448:Q 0.000570825
9 *210:77 0.000154477
10 *210:69 0.000889914
11 *210:59 0.00108939
12 *210:33 0.000386947
13 *210:23 0.000781654
14 *210:19 0.000879851
15 *210:17 0.000533432
16 *210:6 0.0017093
17 *210:59 *211:12 0
18 *210:69 *211:16 0
19 *328:B *328:A 0
20 *343:C *347:A 1.54008e-05
21 *345:B1 *210:59 8.00842e-05
22 *346:A *210:69 0
23 *346:B *210:69 0
24 *346:C *210:69 4.75212e-05
25 *349:A *210:77 0
26 *350:A_N *347:A 3.23417e-05
27 *350:A_N *210:69 7.9608e-05
28 *350:A_N *210:77 0.000180603
29 *355:C *210:69 0
30 *358:B1 *210:59 0
31 *447:D *345:A1 0
32 *447:D *210:69 0
33 *448:CLK *210:6 0
34 *464:A *328:A 0
35 *4:8 *210:69 0
36 *50:16 *210:33 0.000355542
37 *51:8 *210:17 0
38 *51:8 *210:19 0
39 *51:8 *210:23 0
40 *72:10 *210:23 0
41 *80:6 *210:77 4.77425e-05
42 *83:6 *347:A 1.54008e-05
43 *83:6 *210:69 7.92265e-05
44 *85:8 *210:77 0
45 *86:10 *210:69 0
46 *143:8 *210:23 0.000176239
47 *146:17 *210:23 0.000389677
48 *152:68 *210:17 0
49 *152:68 *210:23 0
50 *156:45 *210:6 0
51 *176:14 *210:59 0.000177339
52 *196:17 *329:A 4.77079e-05
53 *196:21 *210:23 0
54 *200:37 *210:69 0
55 *200:54 *210:59 0
56 *207:10 *210:6 0
57 *207:10 *210:17 0
58 *207:10 *210:19 0
59 *207:14 *210:59 0
60 *207:20 *210:19 0
61 *209:12 *328:A 0
62 *209:12 *210:6 0
63 *209:23 *210:17 0
64 *209:29 *326:C 6.39133e-05
65 *209:29 *210:33 7.31628e-05
66 *209:35 *329:A 0
67 *209:63 *210:59 0.000339135
*RES
1 *448:Q *210:6 25.5105 
2 *210:6 *328:A 25.7268 
3 *210:6 *210:17 25.7886 
4 *210:17 *210:19 0.3502 
5 *210:19 *210:23 4.3775 
6 *210:23 *210:33 43.4608 
7 *210:33 *326:C 40.6437 
8 *210:23 *329:A 40.3193 
9 *210:19 *210:59 24.4496 
10 *210:59 *210:69 46.0255 
11 *210:69 *210:77 41.8437 
12 *210:77 *343:A 20 
13 *210:69 *347:A 21.1021 
14 *210:59 *345:A1 20.3502 
15 *210:17 *325:B_N 40 
*END

*D_NET *211 0.00589149
*CONN
*I *345:A2 I *D sg13g2_a21oi_1
*I *473:A I *D sg13g2_buf_1
*I *350:C I *D sg13g2_nand3b_1
*I *348:A I *D sg13g2_and2_1
*I *449:Q O *D sg13g2_dfrbpq_1
*CAP
1 *345:A2 3.84961e-05
2 *473:A 0.000117582
3 *350:C 0.00013053
4 *348:A 0.000163315
5 *449:Q 0.000565076
6 *211:50 0.000705558
7 *211:18 0.000426849
8 *211:16 0.000907686
9 *211:12 0.00036089
10 *211:8 0.000700764
11 *326:A_N *473:A 0
12 *334:B *473:A 0
13 *350:A_N *350:C 4.76034e-05
14 *355:C *211:18 0.000158976
15 *356:A *348:A 0
16 *356:B *348:A 0
17 *449:D *211:8 0.000129163
18 *449:D *211:16 0
19 *468:A *473:A 0
20 *4:8 *350:C 0
21 *72:16 *473:A 4.77425e-05
22 *79:14 *211:50 0
23 *83:6 *350:C 3.23417e-05
24 *83:21 *350:C 1.54008e-05
25 *83:32 *348:A 0.000287017
26 *83:32 *350:C 7.48842e-05
27 *86:10 *211:18 0.000180007
28 *143:14 *211:50 0.000147772
29 *152:68 *211:50 0
30 *200:54 *211:12 0
31 *207:10 *211:8 0
32 *209:8 *211:8 0
33 *209:71 *211:16 0.000314851
34 *209:71 *211:18 0.000338983
35 *210:59 *211:12 0
36 *210:69 *211:16 0
*RES
1 *449:Q *211:8 46.7774 
2 *211:8 *211:12 21.1845 
3 *211:12 *211:16 22.3278 
4 *211:16 *211:18 2.0806 
5 *211:18 *348:A 41.9055 
6 *211:18 *350:C 41.4523 
7 *211:16 *211:50 45.4281 
8 *211:50 *473:A 41.1021 
9 *211:12 *345:A2 20.3193 
*END
