*SPEF "ieee 1481-1999"
*DESIGN "sar_ctrl_async_phys"
*DATE "17:43:17 Thursday August 20, 2026"
*VENDOR "The OpenROAD Project"
*PROGRAM "OpenROAD"
*VERSION "26Q1-1024-gdcf36133a"
*DESIGN_FLOW "NAME_SCOPE LOCAL" "PIN_CAP NONE"
*DIVIDER /
*DELIMITER :
*BUS_DELIMITER []
*T_UNIT 1 NS
*C_UNIT 1 PF
*R_UNIT 1 OHM
*L_UNIT 1 HENRY

*NAME_MAP
*3 bit_active[0]
*4 bit_active[1]
*5 bit_active[2]
*6 bit_active[3]
*7 bit_active[4]
*8 bit_active[5]
*9 bit_active[6]
*10 bit_active[7]
*11 busy
*12 cmp_fault
*13 cmp_fire
*14 cmp_n
*15 cmp_p
*16 cmp_valid
*17 dac_code[0]
*18 dac_code[1]
*19 dac_code[2]
*20 dac_code[3]
*21 dac_code[4]
*22 dac_code[5]
*23 dac_code[6]
*24 dac_code[7]
*25 dac_code_n[0]
*26 dac_code_n[1]
*27 dac_code_n[2]
*28 dac_code_n[3]
*29 dac_code_n[4]
*30 dac_code_n[5]
*31 dac_code_n[6]
*32 dac_code_n[7]
*33 done
*34 hold_req
*35 result[0]
*36 result[1]
*37 result[2]
*38 result[3]
*39 result[4]
*40 result[5]
*41 result[6]
*42 result[7]
*43 rst_n
*44 sample
*45 track
*46 _000_
*47 _001_
*48 _002_
*49 _003_
*50 _004_
*51 _005_
*52 _006_
*53 _007_
*54 _008_
*55 _009_
*56 _010_
*57 _011_
*58 _012_
*59 _013_
*60 _014_
*61 _015_
*62 _016_
*63 _017_
*64 _018_
*65 _019_
*66 _020_
*67 _021_
*68 _022_
*69 _023_
*70 _024_
*71 _025_
*72 _026_
*73 _027_
*74 _028_
*75 _029_
*76 _030_
*77 _031_
*78 _032_
*79 _033_
*80 _034_
*81 _035_
*82 _036_
*83 _037_
*84 _038_
*85 _039_
*86 _040_
*87 _041_
*88 _042_
*89 _043_
*90 _044_
*91 _045_
*92 _046_
*93 _047_
*94 _048_
*95 _049_
*96 _050_
*97 _051_
*98 _052_
*99 _053_
*100 _054_
*101 _055_
*102 active_reg\[0\]
*103 active_reg\[1\]
*104 active_reg\[2\]
*105 active_reg\[3\]
*106 active_reg\[4\]
*107 active_reg\[5\]
*108 active_reg\[6\]
*109 active_reg\[7\]
*110 cmp_decision_hold
*111 decision_hold_reset
*112 decision_hold_set
*113 event_pending
*114 event_pending_reset
*115 guard_request
*116 guard_request_delayed
*117 guard_reset
*118 guard_set
*119 hold_elapsed
*120 hold_elapsed_tail
*121 net1
*122 net10
*123 net11
*124 net12
*125 net13
*126 net14
*127 net15
*128 net16
*129 net17
*130 net18
*131 net19
*132 net2
*133 net20
*134 net21
*135 net22
*136 net23
*137 net24
*138 net25
*139 net26
*140 net27
*141 net28
*142 net29
*143 net3
*144 net30
*145 net31
*146 net32
*147 net33
*148 net34
*149 net35
*150 net36
*151 net37
*152 net38
*153 net39
*154 net4
*155 net40
*156 net41
*157 net42
*158 net43
*159 net44
*160 net45
*161 net46
*162 net47
*163 net48
*164 net49
*165 net5
*166 net50
*167 net51
*168 net52
*169 net53
*170 net54
*171 net6
*172 net7
*173 net8
*174 net9
*175 sar_event_raw
*176 settle_ready
*177 track_n
*178 u_decision_hold\.q_n
*179 u_event_clock_delay\.t0
*180 u_event_pending\.q_n
*181 u_hold_delay\.t0
*182 u_hold_delay\.t1
*183 u_hold_delay\.t2
*184 u_interbit_delay\.t0
*185 u_interbit_delay\.t1
*186 u_launch_width\.t0
*187 u_launch_width\.t1
*188 u_launch_width\.t2
*189 u_settle_latch\.q_n
*190 FILLER_0_0
*191 FILLER_0_14
*192 FILLER_0_21
*193 FILLER_0_28
*194 FILLER_0_35
*195 FILLER_0_42
*196 FILLER_0_49
*197 FILLER_0_56
*198 FILLER_0_61
*199 FILLER_0_68
*200 FILLER_0_7
*201 FILLER_10_0
*202 FILLER_10_15
*203 FILLER_10_22
*204 FILLER_10_29
*205 FILLER_10_40
*206 FILLER_10_47
*207 FILLER_10_54
*208 FILLER_10_58
*209 FILLER_10_65
*210 FILLER_10_69
*211 FILLER_10_7
*212 FILLER_10_75
*213 FILLER_10_82
*214 FILLER_10_9
*215 FILLER_11_0
*216 FILLER_11_16
*217 FILLER_11_2
*218 FILLER_11_23
*219 FILLER_11_30
*220 FILLER_11_32
*221 FILLER_11_72
*222 FILLER_11_79
*223 FILLER_11_86
*224 FILLER_11_93
*225 FILLER_11_97
*226 FILLER_12_0
*227 FILLER_12_113
*228 FILLER_12_28
*229 FILLER_12_38
*230 FILLER_12_40
*231 FILLER_12_45
*232 FILLER_12_78
*233 FILLER_12_80
*234 FILLER_13_0
*235 FILLER_13_113
*236 FILLER_13_37
*237 FILLER_13_98
*238 FILLER_14_113
*239 FILLER_14_17
*240 FILLER_14_24
*241 FILLER_14_26
*242 FILLER_14_39
*243 FILLER_14_4
*244 FILLER_14_46
*245 FILLER_14_53
*246 FILLER_14_60
*247 FILLER_14_64
*248 FILLER_14_76
*249 FILLER_15_0
*250 FILLER_15_16
*251 FILLER_15_23
*252 FILLER_15_30
*253 FILLER_15_34
*254 FILLER_15_45
*255 FILLER_15_52
*256 FILLER_15_59
*257 FILLER_15_66
*258 FILLER_15_73
*259 FILLER_15_80
*260 FILLER_15_91
*261 FILLER_16_0
*262 FILLER_16_15
*263 FILLER_16_22
*264 FILLER_16_29
*265 FILLER_16_36
*266 FILLER_16_43
*267 FILLER_16_50
*268 FILLER_16_52
*269 FILLER_16_67
*270 FILLER_16_79
*271 FILLER_17_11
*272 FILLER_17_111
*273 FILLER_17_113
*274 FILLER_17_18
*275 FILLER_17_25
*276 FILLER_17_32
*277 FILLER_17_39
*278 FILLER_17_4
*279 FILLER_17_77
*280 FILLER_18_0
*281 FILLER_18_112
*282 FILLER_18_14
*283 FILLER_18_21
*284 FILLER_18_28
*285 FILLER_18_35
*286 FILLER_18_42
*287 FILLER_18_49
*288 FILLER_18_53
*289 FILLER_18_7
*290 FILLER_18_82
*291 FILLER_18_84
*292 FILLER_19_0
*293 FILLER_19_111
*294 FILLER_19_113
*295 FILLER_19_14
*296 FILLER_19_21
*297 FILLER_19_28
*298 FILLER_19_35
*299 FILLER_19_42
*300 FILLER_19_49
*301 FILLER_19_56
*302 FILLER_19_7
*303 FILLER_19_89
*304 FILLER_19_91
*305 FILLER_1_11
*306 FILLER_1_18
*307 FILLER_1_25
*308 FILLER_1_32
*309 FILLER_1_39
*310 FILLER_1_4
*311 FILLER_1_46
*312 FILLER_1_51
*313 FILLER_20_0
*314 FILLER_20_12
*315 FILLER_20_19
*316 FILLER_20_26
*317 FILLER_20_33
*318 FILLER_20_40
*319 FILLER_20_47
*320 FILLER_20_54
*321 FILLER_20_61
*322 FILLER_20_68
*323 FILLER_20_7
*324 FILLER_20_99
*325 FILLER_21_0
*326 FILLER_21_14
*327 FILLER_21_21
*328 FILLER_21_28
*329 FILLER_21_35
*330 FILLER_21_42
*331 FILLER_21_49
*332 FILLER_21_53
*333 FILLER_21_7
*334 FILLER_21_81
*335 FILLER_21_88
*336 FILLER_22_11
*337 FILLER_22_18
*338 FILLER_22_25
*339 FILLER_22_32
*340 FILLER_22_39
*341 FILLER_22_4
*342 FILLER_22_46
*343 FILLER_22_53
*344 FILLER_22_60
*345 FILLER_22_67
*346 FILLER_22_74
*347 FILLER_22_81
*348 FILLER_22_88
*349 FILLER_2_0
*350 FILLER_2_14
*351 FILLER_2_21
*352 FILLER_2_28
*353 FILLER_2_35
*354 FILLER_2_7
*355 FILLER_3_0
*356 FILLER_3_14
*357 FILLER_3_21
*358 FILLER_3_28
*359 FILLER_3_35
*360 FILLER_3_42
*361 FILLER_3_52
*362 FILLER_3_7
*363 FILLER_3_80
*364 FILLER_4_0
*365 FILLER_4_14
*366 FILLER_4_21
*367 FILLER_4_28
*368 FILLER_4_35
*369 FILLER_4_69
*370 FILLER_4_7
*371 FILLER_4_76
*372 FILLER_5_11
*373 FILLER_5_18
*374 FILLER_5_25
*375 FILLER_5_32
*376 FILLER_5_39
*377 FILLER_5_4
*378 FILLER_5_46
*379 FILLER_5_53
*380 FILLER_5_64
*381 FILLER_5_73
*382 FILLER_5_80
*383 FILLER_6_0
*384 FILLER_6_14
*385 FILLER_6_21
*386 FILLER_6_28
*387 FILLER_6_35
*388 FILLER_6_42
*389 FILLER_6_49
*390 FILLER_6_51
*391 FILLER_6_7
*392 FILLER_6_89
*393 FILLER_7_0
*394 FILLER_7_113
*395 FILLER_7_14
*396 FILLER_7_21
*397 FILLER_7_40
*398 FILLER_7_47
*399 FILLER_7_7
*400 FILLER_7_78
*401 FILLER_7_85
*402 FILLER_8_0
*403 FILLER_8_111
*404 FILLER_8_113
*405 FILLER_8_14
*406 FILLER_8_21
*407 FILLER_8_50
*408 FILLER_8_57
*409 FILLER_8_61
*410 FILLER_8_67
*411 FILLER_8_7
*412 FILLER_8_71
*413 FILLER_8_77
*414 FILLER_9_0
*415 FILLER_9_17
*416 FILLER_9_22
*417 FILLER_9_29
*418 FILLER_9_46
*419 FILLER_9_53
*420 FILLER_9_60
*421 FILLER_9_62
*422 FILLER_9_7
*423 _056_
*424 _057_
*425 _058_
*426 _059_
*427 _060_
*428 _061_
*429 _062_
*430 _063_
*431 _064_
*432 _065_
*433 _066_
*434 _067_
*435 _068_
*436 _069_
*437 _070_
*438 _071_
*439 _072_
*440 _073_
*441 _074_
*442 _075_
*443 _076_
*444 _077_
*445 _078_
*446 _079_
*447 _080_
*448 _081_
*449 _082_
*450 _083_
*451 _084_
*452 _085_
*453 _086_
*454 _087_
*455 _088_
*456 _089_
*457 _090_
*458 _091_
*459 _092_
*460 _093_
*461 _094_
*462 _095_
*463 _096_
*464 _097_
*465 _098_
*466 _099_
*467 _100_
*468 _101_
*469 _102_
*470 _103_
*471 _104_
*472 _105_
*473 _106_
*474 _107_
*475 _108_
*476 _109_
*477 _110_
*478 _111_
*479 _112_
*480 _113_
*481 _114_
*482 _115_
*483 _116_
*484 _117_
*485 _118_
*486 _119_
*487 _120_
*488 _121_
*489 _122_
*490 _123_
*491 _124_
*492 _125_
*493 _126_
*494 _127_
*495 _128_
*496 _129_
*497 _130_
*498 _131_
*499 _132_
*500 _133_
*501 _134_
*502 _135_
*503 _136_
*504 _137_
*505 _138_
*506 _139_
*507 _140_
*508 _141_
*509 _142_
*510 _143_
*511 _144_
*512 _145_
*513 _146_
*514 _147_
*515 _148_
*516 _149_
*517 _150_
*518 _151_
*519 _152_
*520 _153_
*521 _154_
*522 _155_
*523 _156_
*524 _157_
*525 _158_
*526 _159_
*527 _160_
*528 _161_
*529 _162_
*530 _163_
*531 _164_
*532 _165_
*533 fanout43
*534 fanout44
*535 fanout45
*536 fanout46
*537 fanout47
*538 fanout48
*539 fanout49
*540 fanout50
*541 fanout51
*542 fanout52
*543 fanout53
*544 fanout54
*545 input1
*546 input2
*547 input3
*548 output10
*549 output11
*550 output12
*551 output13
*552 output14
*553 output15
*554 output16
*555 output17
*556 output18
*557 output19
*558 output20
*559 output21
*560 output22
*561 output23
*562 output24
*563 output25
*564 output26
*565 output27
*566 output28
*567 output29
*568 output30
*569 output31
*570 output32
*571 output33
*572 output34
*573 output35
*574 output36
*575 output37
*576 output38
*577 output39
*578 output4
*579 output40
*580 output41
*581 output42
*582 output5
*583 output6
*584 output7
*585 output8
*586 output9
*587 u_decision_hold\.u_q
*588 u_decision_hold\.u_qn
*589 u_event_clock_delay\.u_d0
*590 u_event_clock_delay\.u_d1
*591 u_event_pending\.u_q
*592 u_event_pending\.u_qn
*593 u_hold_delay\.u_d0
*594 u_hold_delay\.u_d1
*595 u_hold_delay\.u_d2
*596 u_hold_delay\.u_d3
*597 u_interbit_delay\.u_d0
*598 u_interbit_delay\.u_d1
*599 u_interbit_delay\.u_d2
*600 u_launch_width\.u_d0
*601 u_launch_width\.u_d1
*602 u_launch_width\.u_d2
*603 u_launch_width\.u_d3
*604 u_settle_latch\.u_q
*605 u_settle_latch\.u_qn

*PORTS
bit_active[0] O
bit_active[1] O
bit_active[2] O
bit_active[3] O
bit_active[4] O
bit_active[5] O
bit_active[6] O
bit_active[7] O
busy O
cmp_fault O
cmp_fire O
cmp_n I
cmp_p I
cmp_valid O
dac_code[0] O
dac_code[1] O
dac_code[2] O
dac_code[3] O
dac_code[4] O
dac_code[5] O
dac_code[6] O
dac_code[7] O
dac_code_n[0] O
dac_code_n[1] O
dac_code_n[2] O
dac_code_n[3] O
dac_code_n[4] O
dac_code_n[5] O
dac_code_n[6] O
dac_code_n[7] O
done O
hold_req O
result[0] O
result[1] O
result[2] O
result[3] O
result[4] O
result[5] O
result[6] O
result[7] O
rst_n I
sample O
track I

*D_NET *3 0.00137358
*CONN
*P bit_active[0] O
*I *578:X O *D sg13g2_buf_1
*CAP
1 bit_active[0] 0.000686791
2 *578:X 0.000686791
3 bit_active[0] bit_active[1] 0
4 bit_active[0] busy 0
5 bit_active[0] *104:8 0
6 bit_active[0] *171:8 0
7 bit_active[0] *172:34 0
*RES
1 *578:X bit_active[0] 47.2924 
*END

*D_NET *4 0.00193015
*CONN
*P bit_active[1] O
*I *582:X O *D sg13g2_buf_1
*CAP
1 bit_active[1] 0.000787849
2 *582:X 0.000787849
3 bit_active[1] bit_active[2] 0
4 bit_active[1] bit_active[4] 0.000144942
5 bit_active[1] *582:A 0
6 bit_active[1] *146:10 0.000209505
7 bit_active[1] *173:39 0
8 bit_active[0] bit_active[1] 0
*RES
1 *582:X bit_active[1] 48.8168 
*END

*D_NET *5 0.00182902
*CONN
*P bit_active[2] O
*I *583:X O *D sg13g2_buf_1
*CAP
1 bit_active[2] 0.000738014
2 *583:X 0.000738014
3 bit_active[2] bit_active[3] 0
4 bit_active[2] *460:B_N 0
5 bit_active[2] *582:A 0
6 bit_active[2] *85:10 0.000176498
7 bit_active[2] *104:8 0
8 bit_active[2] *115:183 0.000176498
9 bit_active[1] bit_active[2] 0
*RES
1 *583:X bit_active[2] 48.5593 
*END

*D_NET *6 0.00186438
*CONN
*P bit_active[3] O
*I *584:X O *D sg13g2_buf_1
*CAP
1 bit_active[3] 0.000644352
2 *584:X 0.000644352
3 bit_active[3] bit_active[4] 0
4 bit_active[3] *582:A 0.000575674
5 bit_active[3] *164:24 0
6 bit_active[3] *172:34 0
7 bit_active[3] *173:39 0
8 bit_active[2] bit_active[3] 0
*RES
1 *584:X bit_active[3] 47.3233 
*END

*D_NET *7 0.00181152
*CONN
*P bit_active[4] O
*I *585:X O *D sg13g2_buf_1
*CAP
1 bit_active[4] 0.0007424
2 *585:X 0.0007424
3 bit_active[4] bit_active[5] 0
4 bit_active[4] *103:10 0
5 bit_active[4] *173:39 0.000181778
6 bit_active[1] bit_active[4] 0.000144942
7 bit_active[3] bit_active[4] 0
*RES
1 *585:X bit_active[4] 47.6323 
*END

*D_NET *8 0.000575799
*CONN
*P bit_active[5] O
*I *586:X O *D sg13g2_buf_1
*CAP
1 bit_active[5] 0.000263943
2 *586:X 0.000263943
3 bit_active[5] bit_active[6] 0
4 bit_active[5] *164:16 4.79124e-05
5 bit_active[5] *174:25 0
6 bit_active[4] bit_active[5] 0
*RES
1 *586:X bit_active[5] 43.09 
*END

*D_NET *9 0.00161219
*CONN
*P bit_active[6] O
*I *548:X O *D sg13g2_buf_1
*CAP
1 bit_active[6] 0.00066369
2 *548:X 0.00066369
3 bit_active[6] bit_active[7] 0
4 bit_active[6] *457:B1 0.000209681
5 bit_active[6] *85:26 7.51285e-05
6 bit_active[6] *103:31 0
7 bit_active[6] *123:23 0
8 bit_active[6] *136:8 0
9 bit_active[6] *164:6 0
10 bit_active[5] bit_active[6] 0
*RES
1 *548:X bit_active[6] 47.1379 
*END

*D_NET *10 0.000966242
*CONN
*P bit_active[7] O
*I *549:X O *D sg13g2_buf_1
*CAP
1 bit_active[7] 0.000432222
2 *549:X 0.000432222
3 bit_active[7] dac_code[7] 0
4 bit_active[7] *561:A 7.97013e-05
5 bit_active[7] *100:71 0
6 bit_active[7] *136:8 2.20966e-05
7 bit_active[6] bit_active[7] 0
*RES
1 *549:X bit_active[7] 44.9337 
*END

*D_NET *11 0.00142622
*CONN
*P busy O
*I *550:X O *D sg13g2_buf_1
*CAP
1 busy 0.000543646
2 *550:X 0.000543646
3 busy done 0
4 busy *550:A 0
5 busy *582:A 0.000338927
6 bit_active[0] busy 0
*RES
1 *550:X busy 46.0255 
*END

*D_NET *12 0.00142886
*CONN
*P cmp_fault O
*I *551:X O *D sg13g2_buf_1
*CAP
1 cmp_fault 0.000714431
2 *551:X 0.000714431
3 cmp_fault cmp_valid 0
*RES
1 *551:X cmp_fault 48.6829 
*END

*D_NET *13 0.000938598
*CONN
*P cmp_fire O
*I *552:X O *D sg13g2_buf_1
*CAP
1 cmp_fire 0.000412973
2 *552:X 0.000412973
3 cmp_fire *602:A 0.000112651
4 cmp_fire *166:66 0
*RES
1 *552:X cmp_fire 44.9646 
*END

*D_NET *14 0.000733641
*CONN
*P cmp_n I
*I *545:A I *D sg13g2_buf_1
*CAP
1 cmp_n 0.000366821
2 *545:A 0.000366821
3 *545:A *121:10 0
4 *545:A *132:12 0
*RES
1 cmp_n *545:A 44.3157 
*END

*D_NET *15 0.000793394
*CONN
*P cmp_p I
*I *546:A I *D sg13g2_buf_1
*CAP
1 cmp_p 0.000396697
2 *546:A 0.000396697
*RES
1 cmp_p *546:A 44.7483 
*END

*D_NET *16 0.00119762
*CONN
*P cmp_valid O
*I *553:X O *D sg13g2_buf_1
*CAP
1 cmp_valid 0.00059881
2 *553:X 0.00059881
3 cmp_valid dac_code_n[0] 0
4 cmp_fault cmp_valid 0
*RES
1 *553:X cmp_valid 47.0452 
*END

*D_NET *17 0.00388676
*CONN
*P dac_code[0] O
*I *554:X O *D sg13g2_buf_1
*CAP
1 dac_code[0] 0.000262893
2 *554:X 0.000922005
3 *17:12 0.0011849
4 dac_code[0] dac_code[1] 0
5 dac_code[0] dac_code_n[7] 0
6 dac_code[0] *142:27 0
7 *17:12 *554:A 0.000143171
8 *17:12 *29:14 0.000177597
9 *17:12 *30:10 0
10 *17:12 *56:6 0
11 *17:12 *144:37 0
12 *17:12 *162:10 8.01116e-05
13 *17:12 *163:40 0.00111608
*RES
1 *554:X *17:12 49.6408 
2 *17:12 dac_code[0] 3.0179 
*END

*D_NET *18 0.0023353
*CONN
*P dac_code[1] O
*I *555:X O *D sg13g2_buf_1
*CAP
1 dac_code[1] 0.000592572
2 *555:X 0.000592572
3 dac_code[1] dac_code[2] 0
4 dac_code[1] *32:14 7.94397e-05
5 dac_code[1] *138:16 7.51285e-05
6 dac_code[1] *140:25 0.000313766
7 dac_code[1] *144:29 0
8 dac_code[1] *145:10 0
9 dac_code[1] *161:30 0.000106064
10 dac_code[1] *161:36 0.000341534
11 dac_code[1] *161:42 0
12 dac_code[1] *163:23 0
13 dac_code[1] *163:40 0.000234224
14 dac_code[0] dac_code[1] 0
*RES
1 *555:X dac_code[1] 47.5808 
*END

*D_NET *19 0.00134871
*CONN
*P dac_code[2] O
*I *556:X O *D sg13g2_buf_1
*CAP
1 dac_code[2] 0.000585998
2 *556:X 0.000585998
3 dac_code[2] dac_code[3] 0
4 dac_code[2] *446:A_N 0
5 dac_code[2] *536:A 0.000176713
6 dac_code[2] *557:A 0
7 dac_code[2] *133:20 0
8 dac_code[2] *134:16 0
9 dac_code[2] *144:37 0
10 dac_code[1] dac_code[2] 0
*RES
1 *556:X dac_code[2] 45.9122 
*END

*D_NET *20 0.00182158
*CONN
*P dac_code[3] O
*I *557:X O *D sg13g2_buf_1
*CAP
1 dac_code[3] 0.000555736
2 *557:X 0.000555736
3 dac_code[3] dac_code[4] 0.000209746
4 dac_code[3] *557:A 0
5 dac_code[3] *174:25 0.000500365
6 dac_code[2] dac_code[3] 0
*RES
1 *557:X dac_code[3] 46.2212 
*END

*D_NET *21 0.00152939
*CONN
*P dac_code[4] O
*I *558:X O *D sg13g2_buf_1
*CAP
1 dac_code[4] 0.000475255
2 *558:X 0.000475255
3 dac_code[4] dac_code[5] 0
4 dac_code[4] *485:A 8.02379e-05
5 dac_code[4] *485:B 0
6 dac_code[4] *557:A 0.000144833
7 dac_code[4] *100:65 0
8 dac_code[4] *134:24 0.000144063
9 dac_code[4] *174:25 0
10 dac_code[3] dac_code[4] 0.000209746
*RES
1 *558:X dac_code[4] 45.4693 
*END

*D_NET *22 0.00171072
*CONN
*P dac_code[5] O
*I *559:X O *D sg13g2_buf_1
*CAP
1 dac_code[5] 0.000501071
2 *559:X 0.000501071
3 dac_code[5] dac_code[6] 0
4 dac_code[5] dac_code[7] 4.7813e-05
5 dac_code[5] *134:24 0.000339131
6 dac_code[5] *164:45 0.000144052
7 dac_code[5] *164:56 0.000177581
8 dac_code[5] *174:25 0
9 dac_code[4] dac_code[5] 0
*RES
1 *559:X dac_code[5] 45.6856 
*END

*D_NET *23 0.00153946
*CONN
*P dac_code[6] O
*I *560:X O *D sg13g2_buf_1
*CAP
1 dac_code[6] 0.00061054
2 *560:X 0.00061054
3 dac_code[6] dac_code[7] 0
4 dac_code[6] *559:A 0.000180111
5 dac_code[6] *560:A 4.77425e-05
6 dac_code[6] *561:A 1.54008e-05
7 dac_code[6] *105:12 7.51285e-05
8 dac_code[6] *164:45 0
9 dac_code[6] *164:56 0
10 dac_code[5] dac_code[6] 0
*RES
1 *560:X dac_code[6] 46.8649 
*END

*D_NET *24 0.00133032
*CONN
*P dac_code[7] O
*I *561:X O *D sg13g2_buf_1
*CAP
1 dac_code[7] 0.00047179
2 *561:X 0.00047179
3 dac_code[7] *164:16 0
4 dac_code[7] *164:45 0
5 dac_code[7] *174:25 0.000338922
6 bit_active[7] dac_code[7] 0
7 dac_code[5] dac_code[7] 4.7813e-05
8 dac_code[6] dac_code[7] 0
*RES
1 *561:X dac_code[7] 45.1397 
*END

*D_NET *25 0.00128368
*CONN
*P dac_code_n[0] O
*I *562:X O *D sg13g2_buf_1
*CAP
1 dac_code_n[0] 0.00058598
2 *562:X 0.00058598
3 dac_code_n[0] dac_code_n[1] 0
4 dac_code_n[0] *564:A 0.000111716
5 dac_code_n[0] *59:25 0
6 dac_code_n[0] *137:39 0
7 cmp_valid dac_code_n[0] 0
*RES
1 *562:X dac_code_n[0] 46.489 
*END

*D_NET *26 0.00171385
*CONN
*P dac_code_n[1] O
*I *563:X O *D sg13g2_buf_1
*CAP
1 dac_code_n[1] 0.000607232
2 *563:X 0.000607232
3 dac_code_n[1] dac_code_n[2] 0
4 dac_code_n[1] *141:53 0.000499383
5 dac_code_n[1] *162:16 0
6 dac_code_n[0] dac_code_n[1] 0
*RES
1 *563:X dac_code_n[1] 46.7259 
*END

*D_NET *27 0.00255667
*CONN
*P dac_code_n[2] O
*I *564:X O *D sg13g2_buf_1
*CAP
1 dac_code_n[2] 0.000811198
2 *564:X 0.000811198
3 dac_code_n[2] dac_code_n[3] 0
4 dac_code_n[2] *564:A 0
5 dac_code_n[2] *568:A 0.000240399
6 dac_code_n[2] *28:10 0
7 dac_code_n[2] *141:53 0
8 dac_code_n[2] *162:10 0.00012816
9 dac_code_n[2] *162:16 0.000181608
10 dac_code_n[2] *162:69 0.000384103
11 dac_code_n[1] dac_code_n[2] 0
*RES
1 *564:X dac_code_n[2] 48.3018 
*END

*D_NET *28 0.00277232
*CONN
*P dac_code_n[3] O
*I *565:X O *D sg13g2_buf_1
*CAP
1 dac_code_n[3] 0.000111083
2 *565:X 0.000640605
3 *28:10 0.000751687
4 dac_code_n[3] dac_code_n[4] 0
5 dac_code_n[3] *567:A 0
6 *28:10 dac_code_n[4] 0
7 *28:10 *55:8 0.000234224
8 *28:10 *59:25 0.00027301
9 *28:10 *137:39 0.000208883
10 *28:10 *162:10 0.000106064
11 *28:10 *162:16 0.000446767
12 dac_code_n[2] dac_code_n[3] 0
13 dac_code_n[2] *28:10 0
*RES
1 *565:X *28:10 47.3748 
2 *28:10 dac_code_n[3] 41.2669 
*END

*D_NET *29 0.00266598
*CONN
*P dac_code_n[4] O
*I *566:X O *D sg13g2_buf_1
*CAP
1 dac_code_n[4] 0.000283146
2 *566:X 0.000681002
3 *29:14 0.000964148
4 dac_code_n[4] dac_code_n[5] 0
5 *29:14 *554:A 0.000207964
6 *29:14 *30:10 0
7 *29:14 *31:10 7.92265e-05
8 *29:14 *56:6 0.0001127
9 *29:14 *141:53 0
10 *29:14 *144:37 0
11 *29:14 *162:10 8.01116e-05
12 *29:14 *162:69 8.00842e-05
13 dac_code_n[3] dac_code_n[4] 0
14 *17:12 *29:14 0.000177597
15 *28:10 dac_code_n[4] 0
*RES
1 *566:X *29:14 46.7465 
2 *29:14 dac_code_n[4] 3.2651 
*END

*D_NET *30 0.00316615
*CONN
*P dac_code_n[5] O
*I *567:X O *D sg13g2_buf_1
*CAP
1 dac_code_n[5] 0.000214695
2 *567:X 0.000705774
3 *30:10 0.000920468
4 dac_code_n[5] dac_code_n[6] 0
5 *30:10 dac_code_n[6] 0.000726854
6 *30:10 *554:A 0
7 *30:10 *567:A 0
8 *30:10 *163:40 0.000598361
9 dac_code_n[4] dac_code_n[5] 0
10 *17:12 *30:10 0
11 *29:14 *30:10 0
*RES
1 *567:X *30:10 47.5911 
2 *30:10 dac_code_n[5] 2.5235 
*END

*D_NET *31 0.00390059
*CONN
*P dac_code_n[6] O
*I *568:X O *D sg13g2_buf_1
*CAP
1 dac_code_n[6] 0.000712904
2 *568:X 0.000194985
3 *31:10 0.000907889
4 dac_code_n[6] dac_code_n[7] 0
5 dac_code_n[6] *133:14 0.000890732
6 dac_code_n[6] *163:40 0
7 *31:10 *133:10 0.00034048
8 *31:10 *141:53 4.75166e-05
9 dac_code_n[5] dac_code_n[6] 0
10 *29:14 *31:10 7.92265e-05
11 *30:10 dac_code_n[6] 0.000726854
*RES
1 *568:X *31:10 42.1218 
2 *31:10 dac_code_n[6] 48.4357 
*END

*D_NET *32 0.0025957
*CONN
*P dac_code_n[7] O
*I *569:X O *D sg13g2_buf_1
*CAP
1 dac_code_n[7] 0.000741949
2 *569:X 0.000380133
3 *32:14 0.00112208
4 dac_code_n[7] *142:27 0
5 dac_code_n[7] *174:25 0
6 *32:14 *555:A 0
7 *32:14 *140:25 8.00842e-05
8 *32:14 *140:37 0.000176559
9 *32:14 *143:59 0
10 *32:14 *145:10 1.54556e-05
11 *32:14 *162:43 0
12 dac_code[0] dac_code_n[7] 0
13 dac_code[1] *32:14 7.94397e-05
14 dac_code_n[6] dac_code_n[7] 0
*RES
1 *569:X *32:14 43.7183 
2 *32:14 dac_code_n[7] 6.7259 
*END

*D_NET *33 0.00104263
*CONN
*P done O
*I *570:X O *D sg13g2_buf_1
*CAP
1 done 0.000521313
2 *570:X 0.000521313
3 done result[7] 0
4 done *550:A 0
5 done *85:10 0
6 busy done 0
*RES
1 *570:X done 45.7165 
*END

*D_NET *34 0.000687035
*CONN
*P hold_req O
*I *571:X O *D sg13g2_buf_1
*CAP
1 hold_req 0.000343518
2 *571:X 0.000343518
3 hold_req *147:10 0
*RES
1 *571:X hold_req 44.0994 
*END

*D_NET *35 0.00179106
*CONN
*P result[0] O
*I *572:X O *D sg13g2_buf_1
*CAP
1 result[0] 0.000812752
2 *572:X 8.27797e-05
3 *35:8 0.000895532
4 result[0] result[1] 0
5 result[0] *573:A 0
6 result[0] *43:9 0
7 *35:8 *43:9 0
*RES
1 *572:X *35:8 40.7519 
2 *35:8 result[0] 10.4339 
*END

*D_NET *36 0.0018654
*CONN
*P result[1] O
*I *573:X O *D sg13g2_buf_1
*CAP
1 result[1] 0.000932702
2 *573:X 0.000932702
3 result[1] result[2] 0
4 result[1] *573:A 0
5 result[1] *149:8 0
6 result[0] result[1] 0
*RES
1 *573:X result[1] 49.7644 
*END

*D_NET *37 0.00177678
*CONN
*P result[2] O
*I *574:X O *D sg13g2_buf_1
*CAP
1 result[2] 0.00088839
2 *574:X 0
3 *37:6 0.00088839
4 result[2] result[3] 0
5 result[2] *573:A 0
6 result[2] *143:10 0
7 result[2] *149:8 0
8 result[2] *167:25 0
9 result[1] result[2] 0
*RES
1 *574:X *37:6 40 
2 *37:6 result[2] 10.4339 
*END

*D_NET *38 0.00245413
*CONN
*P result[3] O
*I *575:X O *D sg13g2_buf_1
*CAP
1 result[3] 0.000684122
2 *575:X 0.000684122
3 result[3] result[4] 0
4 result[3] *96:10 0
5 result[3] *167:21 0.00047744
6 result[3] *167:23 0.000266907
7 result[3] *167:25 0.000341535
8 result[2] result[3] 0
*RES
1 *575:X result[3] 49.7644 
*END

*D_NET *39 0.00418832
*CONN
*P result[4] O
*I *576:X O *D sg13g2_buf_1
*CAP
1 result[4] 0.000497851
2 *576:X 0.00039786
3 *39:8 0.000895712
4 result[4] result[5] 0
5 result[4] *96:10 0.00103178
6 result[4] *150:10 0
7 result[4] *155:26 0.00118872
8 *39:8 *508:D 0.000176405
9 *39:8 *576:A 0
10 *39:8 *153:25 0
11 result[3] result[4] 0
*RES
1 *576:X *39:8 43.3475 
2 *39:8 result[4] 8.7035 
*END

*D_NET *40 0.00240047
*CONN
*P result[5] O
*I *577:X O *D sg13g2_buf_1
*CAP
1 result[5] 0.00101571
2 *577:X 0.00101571
3 result[5] result[6] 0
4 result[5] *94:10 0
5 result[5] *95:10 0.000305904
6 result[5] *115:168 0
7 result[5] *150:10 0
8 result[5] *153:25 0
9 result[5] *158:79 4.77534e-05
10 result[5] *168:12 1.54008e-05
11 result[4] result[5] 0
*RES
1 *577:X result[5] 49.7644 
*END

*D_NET *41 0.00096642
*CONN
*P result[6] O
*I *579:X O *D sg13g2_buf_1
*CAP
1 result[6] 0.000443506
2 *579:X 0.000443506
3 result[6] result[7] 0
4 result[6] *509:D 0
5 result[6] *541:A 0
6 result[6] *579:A 0
7 result[6] *150:10 7.9407e-05
8 result[5] result[6] 0
*RES
1 *579:X result[6] 45.1397 
*END

*D_NET *42 0.00146891
*CONN
*P result[7] O
*I *580:X O *D sg13g2_buf_1
*CAP
1 result[7] 0.000457211
2 *580:X 0.000457211
3 result[7] *146:10 0.000554493
4 done result[7] 0
5 result[6] result[7] 0
*RES
1 *580:X result[7] 46.1594 
*END

*D_NET *43 0.00230942
*CONN
*P rst_n I
*I *547:A I *D sg13g2_buf_1
*CAP
1 rst_n 0.00115471
2 *547:A 0
3 *43:9 0.00115471
4 *43:9 *572:A 0
5 result[0] *43:9 0
6 *35:8 *43:9 0
*RES
1 rst_n *43:9 34.6157 
2 *43:9 *547:A 20 
*END

*D_NET *44 0.000490167
*CONN
*P sample O
*I *581:X O *D sg13g2_buf_1
*CAP
1 sample 0.000245083
2 *581:X 0.000245083
*RES
1 *581:X sample 43.2342 
*END

*D_NET *45 0.00411649
*CONN
*P track I
*I *472:A I *D sg13g2_nor2_1
*I *426:A I *D sg13g2_inv_1
*CAP
1 track 0.000758901
2 *472:A 0
3 *426:A 0
4 *45:23 0.000717951
5 *45:9 0.00147685
6 *45:9 *464:B 0
7 *45:9 *121:10 0.000176914
8 *45:9 *125:8 0
9 *45:9 *132:12 0
10 *45:9 *166:66 0
11 *45:23 *474:B1 0.000144691
12 *45:23 *596:A 0
13 *45:23 *87:14 0
14 *45:23 *91:8 0
15 *45:23 *120:10 0.00060678
16 *45:23 *125:8 0
17 *45:23 *175:12 0
18 *45:23 *187:8 0.000234398
*RES
1 track *45:9 28.7344 
2 *45:9 *45:23 48.3636 
3 *45:23 *426:A 20 
4 *45:9 *472:A 20 
*END

*D_NET *46 0.00142326
*CONN
*I *463:A I *D sg13g2_nor2_1
*I *524:D I *D sg13g2_dfrbpq_1
*I *460:Y O *D sg13g2_nor2b_1
*CAP
1 *463:A 0.000171188
2 *524:D 0
3 *460:Y 0.000214769
4 *46:16 0.000155319
5 *46:10 0.000541276
6 *463:A *503:A2 0
7 *463:A *82:32 0
8 *46:10 *503:A2 0
9 *46:10 *82:32 0
10 *46:16 *124:16 0.000340704
11 *46:16 *166:113 0
12 *46:16 *168:48 0
*RES
1 *460:Y *46:10 22.0703 
2 *46:10 *46:16 42.0806 
3 *46:16 *524:D 20 
4 *46:10 *463:A 21.8334 
*END

*D_NET *47 0.00139469
*CONN
*I *458:A I *D sg13g2_nor2_1
*I *525:D I *D sg13g2_dfrbpq_1
*I *455:Y O *D sg13g2_nor2b_1
*CAP
1 *458:A 0.000497918
2 *525:D 0
3 *455:Y 7.46164e-05
4 *47:10 0.000497918
5 *47:8 7.46164e-05
6 *458:A *497:A2 0
7 *458:A *86:10 1.54008e-05
8 *458:A *143:34 0
9 *47:8 *460:B_N 0.000234224
*RES
1 *455:Y *47:8 41.0918 
2 *47:8 *47:10 20 
3 *47:10 *525:D 20 
4 *47:10 *458:A 24.6968 
*END

*D_NET *48 0.00174361
*CONN
*I *453:A I *D sg13g2_nor2_1
*I *526:D I *D sg13g2_dfrbpq_1
*I *450:Y O *D sg13g2_nor2b_1
*CAP
1 *453:A 0.00017828
2 *526:D 0.000392873
3 *450:Y 0.000571153
4 *453:A *65:10 0
5 *453:A *84:25 0
6 *453:A *143:34 0
7 *453:A *159:18 0.000116994
8 *526:D *143:34 0
9 *526:D *159:18 0
10 *526:D *168:29 0.000242252
11 *526:D *168:40 0.000242055
12 *526:D *172:34 0
*RES
1 *450:Y *526:D 44.326 
2 *450:Y *453:A 41.854 
*END

*D_NET *49 0.00326956
*CONN
*I *448:A I *D sg13g2_nor2_1
*I *527:D I *D sg13g2_dfrbpq_1
*I *445:Y O *D sg13g2_nor2b_1
*CAP
1 *448:A 0
2 *527:D 0.000277606
3 *445:Y 0.000285978
4 *49:25 0.000185192
5 *49:10 0.000462798
6 *49:8 0.000285978
7 *527:D *448:B 0.000144899
8 *527:D *497:A2 0.000274643
9 *527:D *124:35 0
10 *49:8 *127:23 0.00070821
11 *49:8 *173:18 7.30101e-05
12 *49:25 *448:B 0.000192454
13 *49:25 *519:D 1.54008e-05
14 *49:25 *144:14 0.000181694
15 *49:25 *164:98 0.000181694
*RES
1 *445:Y *49:8 43.3166 
2 *49:8 *49:10 20 
3 *49:10 *527:D 22.6986 
4 *49:10 *49:25 42.2454 
5 *49:25 *448:A 20 
*END

*D_NET *50 0.00268063
*CONN
*I *443:A I *D sg13g2_nor2_1
*I *528:D I *D sg13g2_dfrbpq_1
*I *440:Y O *D sg13g2_nor2b_1
*CAP
1 *443:A 0
2 *528:D 0.000440044
3 *440:Y 0.000321472
4 *50:12 0.000832913
5 *50:8 0.00071434
6 *528:D *528:RESET_B 0
7 *50:8 *437:A1 0
8 *50:8 *529:RESET_B 0
9 *50:8 *51:8 0
10 *50:8 *142:14 0
11 *50:8 *170:23 0
12 *50:8 *170:25 0
13 *50:12 *521:D 0
14 *50:12 *528:RESET_B 0.000324124
15 *50:12 *170:40 4.77425e-05
*RES
1 *440:Y *50:8 43.5638 
2 *50:8 *50:12 24.429 
3 *50:12 *528:D 25.0882 
4 *50:12 *443:A 20 
*END

*D_NET *51 0.00139274
*CONN
*I *438:A I *D sg13g2_nor2_1
*I *529:D I *D sg13g2_dfrbpq_1
*I *435:Y O *D sg13g2_nor2b_1
*CAP
1 *438:A 0
2 *529:D 0
3 *435:Y 0.000121011
4 *51:20 0.0005031
5 *51:10 0.0005031
6 *51:8 0.000121011
7 *51:8 *435:A 0
8 *51:8 *115:300 0
9 *51:20 *501:A2 0
10 *51:20 *521:D 0
11 *51:20 *529:RESET_B 0
12 *51:20 *81:10 0
13 *51:20 *115:300 0
14 *51:20 *115:304 0.000144521
15 *50:8 *51:8 0
*RES
1 *435:Y *51:8 41.339 
2 *51:8 *51:10 20 
3 *51:10 *51:20 45.6856 
4 *51:20 *529:D 20 
5 *51:10 *438:A 20 
*END

*D_NET *52 0.00188692
*CONN
*I *530:D I *D sg13g2_dfrbpq_1
*I *433:A I *D sg13g2_nor2_1
*I *430:Y O *D sg13g2_nor2b_1
*CAP
1 *530:D 0
2 *433:A 0
3 *430:Y 0.000102539
4 *52:29 0.000357659
5 *52:16 0.000213527
6 *52:8 0.000673725
7 *52:8 *430:A 4.78028e-05
8 *52:8 *501:A2 0
9 *52:8 *115:83 0
10 *52:16 *503:A2 0
11 *52:16 *80:8 0
12 *52:16 *123:23 0
13 *52:16 *160:74 0.000234224
14 *52:16 *166:113 4.78028e-05
15 *52:29 *430:A 4.78359e-05
16 *52:29 *501:A2 0
17 *52:29 *109:20 0
18 *52:29 *160:55 0.000161801
19 *52:29 *169:29 0
20 *52:29 *169:33 0
*RES
1 *430:Y *52:8 21.1021 
2 *52:8 *52:16 42.3999 
3 *52:16 *433:A 20 
4 *52:8 *52:29 44.223 
5 *52:29 *530:D 20 
*END

*D_NET *53 0.00235177
*CONN
*I *428:A I *D sg13g2_nor2_1
*I *479:A I *D sg13g2_nor4_1
*I *469:A I *D sg13g2_nor2_1
*I *531:D I *D sg13g2_dfrbpq_1
*I *424:Y O *D sg13g2_inv_1
*CAP
1 *428:A 7.79106e-05
2 *479:A 0.000292304
3 *469:A 0.000206013
4 *531:D 2.32363e-05
5 *424:Y 4.29027e-05
6 *53:34 0.000595841
7 *53:19 0.000475727
8 *53:10 6.73253e-05
9 *53:8 4.29027e-05
10 *469:A *79:12 0
11 *469:A *115:31 0
12 *469:A *166:50 0
13 *479:A *523:D 0.000272314
14 *479:A *92:10 0
15 *479:A *115:31 0
16 *531:D *115:31 4.77425e-05
17 *53:8 *166:50 0.000127825
18 *53:34 *79:12 0
19 *53:34 *92:10 7.97219e-05
20 *53:34 *115:31 0
*RES
1 *424:Y *53:8 40.5974 
2 *53:8 *53:10 20 
3 *53:10 *531:D 20.3193 
4 *53:10 *53:19 0.5974 
5 *53:19 *469:A 22.0497 
6 *53:19 *53:34 2.8531 
7 *53:34 *479:A 23.1106 
8 *53:34 *428:A 20.8446 
*END

*D_NET *54 0.00363451
*CONN
*I *533:A I *D sg13g2_buf_1
*I *497:B1 I *D sg13g2_a22oi_1
*I *480:Y O *D sg13g2_nand2_1
*CAP
1 *533:A 0
2 *497:B1 0
3 *480:Y 0.000111936
4 *54:22 0.000688237
5 *54:12 0.000688237
6 *54:10 0.000111936
7 *54:10 *480:B 0
8 *54:10 *501:A2 0
9 *54:10 *505:S 0.000287256
10 *54:10 *158:8 0.000287757
11 *54:10 *166:22 4.78195e-05
12 *54:22 *497:B2 0
13 *54:22 *497:A2 0
14 *54:22 *497:A1 4.78028e-05
15 *54:22 *507:D 0
16 *54:22 *576:A 0
17 *54:22 *82:32 0
18 *54:22 *93:10 0.000234224
19 *54:22 *115:214 0.000394566
20 *54:22 *155:10 0.000187162
21 *54:22 *159:38 7.51285e-05
22 *54:22 *159:42 0.00039332
23 *54:22 *159:57 7.91244e-05
24 *54:22 *167:81 0
*RES
1 *480:Y *54:10 41.8746 
2 *54:10 *54:12 20 
3 *54:12 *54:22 48.1576 
4 *54:22 *497:B1 20 
5 *54:12 *533:A 20 
*END

*D_NET *55 0.00113625
*CONN
*I *482:B I *D sg13g2_nand2_1
*I *461:A_N I *D sg13g2_nand2b_1
*I *516:Q O *D sg13g2_dfrbpq_1
*CAP
1 *482:B 4.57767e-05
2 *461:A_N 0
3 *516:Q 0.000111596
4 *55:12 9.68035e-05
5 *55:8 0.000162623
6 *482:B *138:6 0
7 *482:B *144:37 1.16309e-05
8 *55:8 *138:49 0.000393512
9 *55:8 *162:16 0
10 *55:12 *461:B 8.00842e-05
11 *28:10 *55:8 0.000234224
*RES
1 *516:Q *55:8 41.8334 
2 *55:8 *55:12 20.5356 
3 *55:12 *461:A_N 20 
4 *55:12 *482:B 20.5742 
*END

*D_NET *56 0.00238735
*CONN
*I *456:A_N I *D sg13g2_nand2b_1
*I *483:B I *D sg13g2_nand2_1
*I *517:Q O *D sg13g2_dfrbpq_1
*CAP
1 *456:A_N 0
2 *483:B 0
3 *517:Q 0.000416112
4 *56:12 0.000400798
5 *56:6 0.00081691
6 *56:6 *456:B 1.54008e-05
7 *56:6 *144:37 0
8 *56:12 *441:B 0.000287256
9 *56:12 *456:B 0.000265159
10 *56:12 *59:8 0
11 *56:12 *141:18 0
12 *56:12 *162:31 7.30101e-05
13 *56:12 *162:43 0
14 *17:12 *56:6 0
15 *29:14 *56:6 0.0001127
*RES
1 *517:Q *56:6 23.5638 
2 *56:6 *56:12 44.3054 
3 *56:12 *483:B 20 
4 *56:6 *456:A_N 20 
*END

*D_NET *57 0.00256484
*CONN
*I *451:A_N I *D sg13g2_nand2b_1
*I *484:B I *D sg13g2_nand2_1
*I *518:Q O *D sg13g2_dfrbpq_1
*CAP
1 *451:A_N 0.000216127
2 *484:B 0.000505036
3 *518:Q 0.000141485
4 *57:8 0.000862648
5 *451:A_N *138:16 0.000404345
6 *451:A_N *161:67 0.000404345
7 *451:A_N *161:74 1.54008e-05
8 *484:B *139:12 0
9 *484:B *161:67 0
10 *484:B *162:43 1.54556e-05
11 *484:B *174:25 0
12 *57:8 *174:25 0
*RES
1 *518:Q *57:8 41.5862 
2 *57:8 *484:B 44.6556 
3 *57:8 *451:A_N 42.6986 
*END

*D_NET *58 0.000944831
*CONN
*I *485:B I *D sg13g2_nand2_1
*I *446:A_N I *D sg13g2_nand2b_1
*I *519:Q O *D sg13g2_dfrbpq_1
*CAP
1 *485:B 0.000122822
2 *446:A_N 0.000229892
3 *519:Q 0
4 *58:4 0.000352714
5 *446:A_N *485:A 0.000143577
6 *446:A_N *536:A 4.79124e-05
7 *446:A_N *557:A 0
8 *446:A_N *134:16 0
9 *446:A_N *138:24 0
10 *485:B *485:A 4.79124e-05
11 *485:B *557:A 0
12 dac_code[2] *446:A_N 0
13 dac_code[4] *485:B 0
*RES
1 *519:Q *58:4 20 
2 *58:4 *446:A_N 22.4617 
3 *58:4 *485:B 21.3493 
*END

*D_NET *59 0.00260973
*CONN
*I *486:B I *D sg13g2_nand2_1
*I *441:A_N I *D sg13g2_nand2b_1
*I *520:Q O *D sg13g2_dfrbpq_1
*CAP
1 *486:B 0
2 *441:A_N 5.1992e-05
3 *520:Q 0.000324562
4 *59:25 0.000429566
5 *59:10 0.000481557
6 *59:8 0.000324562
7 *441:A_N *441:B 4.77425e-05
8 *441:A_N *137:16 8.00842e-05
9 *441:A_N *141:18 0
10 *59:8 *441:B 7.51285e-05
11 *59:8 *115:356 0
12 *59:8 *138:49 0
13 *59:8 *141:43 0
14 *59:8 *162:31 7.30101e-05
15 *59:25 *564:A 0
16 *59:25 *137:16 0.00011159
17 *59:25 *137:39 0
18 *59:25 *141:43 0.000336926
19 dac_code_n[0] *59:25 0
20 *28:10 *59:25 0.00027301
21 *56:12 *59:8 0
*RES
1 *520:Q *59:8 43.0694 
2 *59:8 *59:10 20 
3 *59:10 *441:A_N 20.5356 
4 *59:10 *59:25 44.4084 
5 *59:25 *486:B 20 
*END

*D_NET *60 0.00262233
*CONN
*I *487:B I *D sg13g2_nand2_1
*I *436:A_N I *D sg13g2_nand2b_1
*I *521:Q O *D sg13g2_dfrbpq_1
*CAP
1 *487:B 0.000286242
2 *436:A_N 0
3 *521:Q 0.000710205
4 *60:14 0.000996447
5 *487:B *130:8 0.000181695
6 *487:B *140:31 0
7 *487:B *163:23 0
8 *60:14 *442:A2 0
9 *60:14 *444:A 0
10 *60:14 *444:B 0.000145003
11 *60:14 *462:B1 0
12 *60:14 *100:51 0.000287342
13 *60:14 *106:6 0
14 *60:14 *124:35 1.54008e-05
15 *60:14 *141:28 0
16 *60:14 *169:105 0
*RES
1 *521:Q *60:14 46.8392 
2 *60:14 *436:A_N 40 
3 *60:14 *487:B 42.575 
*END

*D_NET *61 0.00260148
*CONN
*I *488:B I *D sg13g2_nand2_1
*I *431:A_N I *D sg13g2_nand2b_1
*I *522:Q O *D sg13g2_dfrbpq_1
*CAP
1 *488:B 0.000174358
2 *431:A_N 3.54974e-05
3 *522:Q 0.000152341
4 *61:8 0.000362197
5 *431:A_N *447:B1 1.15506e-05
6 *431:A_N *164:83 1.54008e-05
7 *488:B *83:8 0.000106295
8 *488:B *135:8 0.000128248
9 *488:B *173:31 0.000497996
10 *61:8 *83:8 0.000600122
11 *61:8 *115:259 0.000180882
12 *61:8 *173:31 0.000336595
*RES
1 *522:Q *61:8 42.8222 
2 *61:8 *431:A_N 40.2935 
3 *61:8 *488:B 42.6471 
*END

*D_NET *62 0.00915254
*CONN
*I *489:B I *D sg13g2_nand2_1
*I *490:A_N I *D sg13g2_nand2b_1
*I *427:B1 I *D sg13g2_a21oi_1
*I *523:Q O *D sg13g2_dfrbpq_1
*CAP
1 *489:B 0.000315996
2 *490:A_N 0.000444412
3 *427:B1 0.000577421
4 *523:Q 4.79977e-05
5 *62:42 0.000673146
6 *62:21 0.001191
7 *62:8 0.00101486
8 *427:B1 *435:B_N 0.000236274
9 *427:B1 *523:D 0
10 *427:B1 *531:CLK 0
11 *427:B1 *79:27 1.54008e-05
12 *427:B1 *115:62 0
13 *427:B1 *127:23 0.000981238
14 *489:B *100:71 0
15 *489:B *122:25 0
16 *489:B *164:6 0
17 *490:A_N *447:B1 0
18 *490:A_N *519:CLK 0
19 *490:A_N *102:33 0
20 *490:A_N *122:25 4.67945e-05
21 *490:A_N *144:29 0
22 *490:A_N *145:10 0
23 *490:A_N *160:34 0
24 *490:A_N *161:36 1.54008e-05
25 *62:8 *100:18 7.91347e-05
26 *62:8 *160:55 7.91347e-05
27 *62:21 *435:B_N 0.000394248
28 *62:21 *122:25 0.00137564
29 *62:21 *127:23 0.00158932
30 *62:21 *173:18 0
31 *62:42 *122:25 7.51285e-05
32 *62:42 *138:24 0
33 *62:42 *139:16 0
34 *62:42 *144:14 0
*RES
1 *523:Q *62:8 40.5356 
2 *62:8 *427:B1 47.411 
3 *62:8 *62:21 8.2606 
4 *62:21 *490:A_N 43.8316 
5 *62:21 *62:42 43.1724 
6 *62:42 *489:B 43.1312 
*END

*D_NET *63 0.00576365
*CONN
*I *516:D I *D sg13g2_dfrbpq_1
*I *463:Y O *D sg13g2_nor2_1
*CAP
1 *516:D 0
2 *463:Y 0.00198413
3 *63:12 0.00198413
4 *63:12 *439:B 0
5 *63:12 *440:A 0
6 *63:12 *503:A2 0
7 *63:12 *528:CLK 0
8 *63:12 *82:10 0.000825241
9 *63:12 *82:32 0
10 *63:12 *122:8 4.74263e-05
11 *63:12 *124:35 0
12 *63:12 *141:28 0
13 *63:12 *166:113 0.00092271
14 *63:12 *169:113 0
15 *63:12 *174:10 0
*RES
1 *463:Y *63:12 39.9408 
2 *63:12 *516:D 20 
*END

*D_NET *64 0.00488403
*CONN
*I *517:D I *D sg13g2_dfrbpq_1
*I *458:Y O *D sg13g2_nor2_1
*CAP
1 *517:D 0
2 *458:Y 0.00136171
3 *64:12 0.00136171
4 *64:12 *462:A2 0.000208824
5 *64:12 *462:B1 0
6 *64:12 *517:RESET_B 0
7 *64:12 *527:RESET_B 0
8 *64:12 *65:10 0
9 *64:12 *86:10 0
10 *64:12 *100:63 0
11 *64:12 *142:6 4.78356e-05
12 *64:12 *142:27 9.70527e-05
13 *64:12 *143:34 4.7154e-05
14 *64:12 *143:42 0.00134148
15 *64:12 *143:59 0.000161858
16 *64:12 *169:6 4.73361e-05
17 *64:12 *169:10 0.000209077
18 *64:12 *169:14 0
*RES
1 *458:Y *64:12 34.5951 
2 *64:12 *517:D 20 
*END

*D_NET *65 0.00590199
*CONN
*I *518:D I *D sg13g2_dfrbpq_1
*I *453:Y O *D sg13g2_nor2_1
*CAP
1 *518:D 0
2 *453:Y 0.00141593
3 *65:18 0.00028213
4 *65:10 0.00169806
5 *65:10 *436:B 0.00011227
6 *65:10 *517:RESET_B 8.00842e-05
7 *65:10 *544:A 0.000338246
8 *65:10 *102:14 0
9 *65:10 *102:33 0.000200466
10 *65:10 *142:6 4.78356e-05
11 *65:10 *142:27 0.000208904
12 *65:10 *143:34 0
13 *65:10 *143:42 0.00134148
14 *65:10 *143:59 0.000176581
15 *65:18 *462:B1 0
16 *65:18 *517:RESET_B 0
17 *65:18 *170:23 0
18 *65:18 *174:25 0
19 *453:A *65:10 0
20 *64:12 *65:10 0
*RES
1 *453:Y *65:10 34.6157 
2 *65:10 *65:18 42.5235 
3 *65:18 *518:D 20 
*END

*D_NET *66 0.000300467
*CONN
*I *519:D I *D sg13g2_dfrbpq_1
*I *448:Y O *D sg13g2_nor2_1
*CAP
1 *519:D 9.13263e-05
2 *448:Y 9.13263e-05
3 *519:D *82:32 0
4 *519:D *124:35 0.000102413
5 *49:25 *519:D 1.54008e-05
*RES
1 *448:Y *519:D 41.133 
*END

*D_NET *67 0.000196008
*CONN
*I *520:D I *D sg13g2_dfrbpq_1
*I *443:Y O *D sg13g2_nor2_1
*CAP
1 *520:D 9.8004e-05
2 *443:Y 9.8004e-05
3 *520:D *520:RESET_B 0
4 *520:D *528:RESET_B 0
*RES
1 *443:Y *520:D 41.133 
*END

*D_NET *68 0.000696763
*CONN
*I *521:D I *D sg13g2_dfrbpq_1
*I *438:Y O *D sg13g2_nor2_1
*CAP
1 *521:D 0.000348381
2 *438:Y 0.000348381
3 *521:D *437:A2 0
4 *521:D *115:304 0
5 *521:D *115:315 0
6 *50:12 *521:D 0
7 *51:20 *521:D 0
*RES
1 *438:Y *521:D 43.1312 
*END

*D_NET *69 0.00163668
*CONN
*I *522:D I *D sg13g2_dfrbpq_1
*I *433:Y O *D sg13g2_nor2_1
*CAP
1 *522:D 0
2 *433:Y 0.0004205
3 *69:10 0.0004205
4 *69:10 *522:RESET_B 8.0216e-05
5 *69:10 *80:8 0.000533859
6 *69:10 *115:253 0.000181608
7 *69:10 *166:113 0
8 *69:10 *169:29 0
*RES
1 *433:Y *69:10 44.4084 
2 *69:10 *522:D 40 
*END

*D_NET *70 0.000808529
*CONN
*I *523:D I *D sg13g2_dfrbpq_1
*I *428:Y O *D sg13g2_nor2_1
*CAP
1 *523:D 0.000268108
2 *428:Y 0.000268108
3 *427:B1 *523:D 0
4 *479:A *523:D 0.000272314
*RES
1 *428:Y *523:D 42.9973 
*END

*D_NET *71 0.000768473
*CONN
*I *506:D I *D sg13g2_dfrbpq_1
*I *492:Y O *D sg13g2_inv_1
*CAP
1 *506:D 0.000320802
2 *492:Y 0.000320802
3 *506:D *500:A 0
4 *506:D *510:CLK 0
5 *506:D *115:101 0
6 *506:D *155:26 4.78524e-05
7 *506:D *167:64 0
8 *506:D *167:81 7.90177e-05
*RES
1 *492:Y *506:D 43.6565 
*END

*D_NET *72 0.00283323
*CONN
*I *507:D I *D sg13g2_dfrbpq_1
*I *494:Y O *D sg13g2_inv_1
*CAP
1 *507:D 0.000982028
2 *494:Y 0.000982028
3 *507:D *491:B2 0
4 *507:D *494:A 4.78985e-05
5 *507:D *497:A2 0
6 *507:D *497:A1 4.78028e-05
7 *507:D *507:RESET_B 0
8 *507:D *572:A 0
9 *507:D *573:A 0
10 *507:D *574:A 0.000466782
11 *507:D *575:A 0
12 *507:D *143:18 0
13 *507:D *143:26 0.00030669
14 *54:22 *507:D 0
*RES
1 *494:Y *507:D 48.936 
*END

*D_NET *73 0.000967545
*CONN
*I *508:D I *D sg13g2_dfrbpq_1
*I *496:Y O *D sg13g2_inv_1
*CAP
1 *508:D 9.89944e-05
2 *496:Y 9.03326e-05
3 *73:8 0.000189327
4 *508:D *576:A 0.000176405
5 *73:8 *94:10 0.000236081
6 *73:8 *95:10 0
7 *73:8 *143:26 0
8 *39:8 *508:D 0.000176405
*RES
1 *496:Y *73:8 41.0918 
2 *73:8 *508:D 41.1845 
*END

*D_NET *74 0.000432896
*CONN
*I *509:D I *D sg13g2_dfrbpq_1
*I *498:Y O *D sg13g2_inv_1
*CAP
1 *509:D 0.000216448
2 *498:Y 0.000216448
3 *509:D *509:RESET_B 0
4 *509:D *167:6 0
5 result[6] *509:D 0
*RES
1 *498:Y *509:D 42.3793 
*END

*D_NET *75 0.000544133
*CONN
*I *510:D I *D sg13g2_dfrbpq_1
*I *500:Y O *D sg13g2_inv_1
*CAP
1 *510:D 0.000272067
2 *500:Y 0.000272067
3 *510:D *500:A 0
4 *510:D *502:A 0
5 *510:D *510:RESET_B 0
*RES
1 *500:Y *510:D 43.2033 
*END

*D_NET *76 0.000711708
*CONN
*I *511:D I *D sg13g2_dfrbpq_1
*I *502:Y O *D sg13g2_inv_1
*CAP
1 *511:D 0.00034349
2 *502:Y 0.00034349
3 *511:D *502:A 2.4729e-05
*RES
1 *502:Y *511:D 44.1097 
*END

*D_NET *77 0.00059377
*CONN
*I *512:D I *D sg13g2_dfrbpq_1
*I *504:Y O *D sg13g2_inv_1
*CAP
1 *512:D 0
2 *504:Y 0.000296885
3 *77:10 0.000296885
4 *77:10 *501:A1 0
5 *77:10 *512:RESET_B 0
6 *77:10 *158:23 0
*RES
1 *504:Y *77:10 43.2342 
2 *77:10 *512:D 40 
*END

*D_NET *78 0.000274373
*CONN
*I *513:D I *D sg13g2_dfrbpq_1
*I *505:X O *D sg13g2_mux2_1
*CAP
1 *513:D 9.70485e-05
2 *505:X 9.70485e-05
3 *513:D *480:B 0
4 *513:D *503:A2 8.02763e-05
*RES
1 *505:X *513:D 41.133 
*END

*D_NET *79 0.00573623
*CONN
*I *428:B I *D sg13g2_nor2_1
*I *505:A1 I *D sg13g2_mux2_1
*I *427:Y O *D sg13g2_a21oi_1
*CAP
1 *428:B 0
2 *505:A1 0.000543359
3 *427:Y 0
4 *79:27 0.000138883
5 *79:12 0.00114845
6 *79:4 0.000743973
7 *505:A1 *501:A2 0.000858026
8 *505:A1 *505:S 0
9 *505:A1 *514:RESET_B 0
10 *505:A1 *514:D 0
11 *505:A1 *168:48 0
12 *79:12 *427:A1 0.000259314
13 *79:12 *471:C 4.77425e-05
14 *79:12 *100:8 0.00046934
15 *79:12 *110:25 0.000182023
16 *79:12 *166:35 0.000554907
17 *79:12 *166:50 0.000566409
18 *79:12 *168:48 0.00012816
19 *79:12 *168:59 0
20 *79:27 *427:A1 8.02431e-05
21 *79:27 *166:50 0
22 *79:27 *169:33 0
23 *427:B1 *79:27 1.54008e-05
24 *469:A *79:12 0
25 *53:34 *79:12 0
*RES
1 *427:Y *79:4 20 
2 *79:4 *79:12 48.3018 
3 *79:12 *505:A1 25.7268 
4 *79:4 *79:27 41.6274 
5 *79:27 *428:B 20 
*END

*D_NET *80 0.00694071
*CONN
*I *433:B I *D sg13g2_nor2_1
*I *503:A2 I *D sg13g2_a22oi_1
*I *432:Y O *D sg13g2_a21oi_1
*CAP
1 *433:B 0
2 *503:A2 0.00153497
3 *432:Y 0.000554878
4 *80:8 0.00208985
5 *503:A2 *480:B 0
6 *503:A2 *501:A2 0
7 *503:A2 *503:A1 0
8 *503:A2 *513:RESET_B 0
9 *503:A2 *524:RESET_B 8.00842e-05
10 *503:A2 *82:32 0.000274666
11 *503:A2 *115:83 0
12 *503:A2 *155:14 0.000112136
13 *503:A2 *160:74 0.000533991
14 *503:A2 *166:14 0
15 *503:A2 *166:22 0.000209637
16 *503:A2 *166:113 0
17 *503:A2 *167:81 0.000856267
18 *80:8 *432:A2 1.54008e-05
19 *80:8 *100:18 0
20 *80:8 *160:74 6.46888e-05
21 *80:8 *166:113 0
22 *463:A *503:A2 0
23 *513:D *503:A2 8.02763e-05
24 *46:10 *503:A2 0
25 *52:16 *503:A2 0
26 *52:16 *80:8 0
27 *63:12 *503:A2 0
28 *69:10 *80:8 0.000533859
*RES
1 *432:Y *80:8 25.6444 
2 *80:8 *503:A2 36.3706 
3 *80:8 *433:B 20 
*END

*D_NET *81 0.00718128
*CONN
*I *438:B I *D sg13g2_nor2_1
*I *501:A2 I *D sg13g2_a22oi_1
*I *437:Y O *D sg13g2_a21oi_1
*CAP
1 *438:B 0
2 *501:A2 0.00263006
3 *437:Y 0.00019198
4 *81:10 0.00282204
5 *501:A2 *427:A1 0
6 *501:A2 *429:B 0
7 *501:A2 *435:A 0
8 *501:A2 *435:B_N 0
9 *501:A2 *480:B 0.000663779
10 *501:A2 *503:A1 0
11 *501:A2 *505:S 0
12 *501:A2 *514:D 0
13 *501:A2 *530:RESET_B 0
14 *501:A2 *531:CLK 0
15 *501:A2 *100:8 0
16 *501:A2 *110:25 0
17 *501:A2 *115:62 0
18 *501:A2 *115:214 0
19 *501:A2 *158:23 0
20 *501:A2 *160:55 0
21 *501:A2 *166:14 0
22 *501:A2 *166:29 0
23 *501:A2 *166:98 0
24 *501:A2 *166:113 0
25 *81:10 *435:A 1.54008e-05
26 *81:10 *437:A2 0
27 *503:A2 *501:A2 0
28 *505:A1 *501:A2 0.000858026
29 *51:20 *501:A2 0
30 *51:20 *81:10 0
31 *52:8 *501:A2 0
32 *52:29 *501:A2 0
33 *54:10 *501:A2 0
*RES
1 *437:Y *81:10 22.472 
2 *81:10 *501:A2 46.5946 
3 *81:10 *438:B 20 
*END

*D_NET *82 0.00901726
*CONN
*I *499:A2 I *D sg13g2_a22oi_1
*I *443:B I *D sg13g2_nor2_1
*I *442:Y O *D sg13g2_a21oi_1
*CAP
1 *499:A2 0
2 *443:B 0
3 *442:Y 0.00345983
4 *82:32 0.0026497
5 *82:10 0.000810134
6 *82:10 *442:A2 0
7 *82:10 *520:CLK 0.000194395
8 *82:10 *115:315 0
9 *82:10 *115:337 0.000145003
10 *82:10 *141:28 4.79124e-05
11 *82:10 *169:113 0
12 *82:32 *448:B 0
13 *82:32 *460:B_N 4.77866e-05
14 *82:32 *481:A 0
15 *82:32 *492:A 0
16 *82:32 *497:A2 0
17 *82:32 *524:CLK 0.000127925
18 *82:32 *108:10 0.000434673
19 *82:32 *115:91 0
20 *82:32 *115:93 0
21 *82:32 *124:27 0
22 *82:32 *124:35 0
23 *82:32 *155:10 0
24 *82:32 *159:57 0
25 *82:32 *163:10 0
26 *82:32 *167:81 0
27 *463:A *82:32 0
28 *503:A2 *82:32 0.000274666
29 *519:D *82:32 0
30 *46:10 *82:32 0
31 *54:22 *82:32 0
32 *63:12 *82:10 0.000825241
33 *63:12 *82:32 0
*RES
1 *442:Y *82:10 49.0743 
2 *82:10 *443:B 40 
3 *442:Y *82:32 46.6564 
4 *82:32 *499:A2 20 
*END

*D_NET *83 0.00780846
*CONN
*I *448:B I *D sg13g2_nor2_1
*I *497:A2 I *D sg13g2_a22oi_1
*I *447:Y O *D sg13g2_a21oi_1
*CAP
1 *448:B 0.000212002
2 *497:A2 0.00200328
3 *447:Y 0.000478733
4 *83:10 0.00221528
5 *83:8 0.000478733
6 *448:B *522:CLK 4.77425e-05
7 *448:B *108:10 0
8 *497:A2 *455:A 0
9 *497:A2 *455:B_N 0.000436713
10 *497:A2 *494:A 0.000112548
11 *497:A2 *576:A 0.00014459
12 *497:A2 *86:27 0
13 *497:A2 *108:10 0
14 *497:A2 *124:35 0
15 *497:A2 *143:26 0
16 *497:A2 *143:34 0
17 *83:8 *115:259 0
18 *83:8 *164:83 7.31628e-05
19 *83:8 *169:27 0.000287256
20 *83:8 *172:8 0
21 *458:A *497:A2 0
22 *488:B *83:8 0.000106295
23 *507:D *497:A2 0
24 *527:D *448:B 0.000144899
25 *527:D *497:A2 0.000274643
26 *49:25 *448:B 0.000192454
27 *54:22 *497:A2 0
28 *61:8 *83:8 0.000600122
29 *82:32 *448:B 0
30 *82:32 *497:A2 0
*RES
1 *447:Y *83:8 46.0358 
2 *83:8 *83:10 20 
3 *83:10 *497:A2 40.9914 
4 *83:10 *448:B 22.266 
*END

*D_NET *84 0.00539208
*CONN
*I *453:B I *D sg13g2_nor2_1
*I *495:A2 I *D sg13g2_a22oi_1
*I *452:Y O *D sg13g2_a21oi_1
*CAP
1 *453:B 0
2 *495:A2 0.00155569
3 *452:Y 0
4 *84:25 0.00024952
5 *84:4 0.00180521
6 *495:A2 *452:A2 0
7 *495:A2 *457:B1 0
8 *495:A2 *495:B2 0.000144308
9 *495:A2 *525:CLK 0.000274709
10 *495:A2 *580:A 1.54008e-05
11 *495:A2 *583:A 8.00842e-05
12 *495:A2 *94:10 0
13 *495:A2 *95:10 0
14 *495:A2 *115:179 0
15 *495:A2 *115:183 0
16 *495:A2 *159:32 0.00046906
17 *495:A2 *167:105 0.000338114
18 *495:A2 *168:12 0
19 *84:25 *457:B1 0
20 *84:25 *539:A 0.000229743
21 *84:25 *159:10 0.000230244
22 *84:25 *159:18 0
23 *453:A *84:25 0
*RES
1 *452:Y *84:4 20 
2 *84:4 *495:A2 34.5189 
3 *84:4 *84:25 42.8119 
4 *84:25 *453:B 20 
*END

*D_NET *85 0.00547482
*CONN
*I *458:B I *D sg13g2_nor2_1
*I *493:A2 I *D sg13g2_a22oi_1
*I *457:Y O *D sg13g2_a21oi_1
*CAP
1 *458:B 0
2 *493:A2 0
3 *457:Y 0.00183868
4 *85:26 0.000383337
5 *85:10 0.00145535
6 *85:10 *452:A2 0
7 *85:10 *454:B 0
8 *85:10 *493:B2 3.15716e-05
9 *85:10 *515:CLK 0
10 *85:10 *525:CLK 0
11 *85:10 *541:A 0
12 *85:10 *550:A 0
13 *85:10 *94:10 0
14 *85:10 *104:18 0.000370696
15 *85:10 *115:179 0.00024199
16 *85:10 *115:183 0
17 *85:10 *164:24 0
18 *85:26 *457:B1 0
19 *85:26 *539:A 0.000757169
20 *85:26 *100:71 1.54556e-05
21 *85:26 *123:23 0
22 *85:26 *160:12 0.000128943
23 bit_active[2] *85:10 0.000176498
24 bit_active[6] *85:26 7.51285e-05
25 done *85:10 0
*RES
1 *457:Y *85:10 33.7505 
2 *85:10 *493:A2 20 
3 *457:Y *85:26 44.7174 
4 *85:26 *458:B 40 
*END

*D_NET *86 0.00874134
*CONN
*I *491:A2 I *D sg13g2_a22oi_1
*I *463:B I *D sg13g2_nor2_1
*I *462:Y O *D sg13g2_a21oi_1
*CAP
1 *491:A2 0
2 *463:B 0.000121909
3 *462:Y 0.00111879
4 *86:27 0.0012713
5 *86:14 0.0015135
6 *86:10 0.00123907
7 *463:B *123:23 0
8 *463:B *124:16 0
9 *463:B *124:27 7.51285e-05
10 *86:10 *527:RESET_B 0.000306985
11 *86:10 *100:63 0.000306414
12 *86:10 *124:35 0.00127718
13 *86:10 *143:34 0
14 *86:10 *169:6 0
15 *86:10 *169:10 0
16 *86:10 *169:14 0
17 *86:10 *169:105 2.43395e-05
18 *86:14 *539:A 7.51285e-05
19 *86:14 *124:27 0.000265575
20 *86:27 *455:A 4.78521e-05
21 *86:27 *524:CLK 0
22 *86:27 *93:10 0
23 *86:27 *115:91 0
24 *86:27 *115:93 0
25 *86:27 *124:8 0.000501188
26 *86:27 *124:27 0.000274622
27 *86:27 *143:26 0.000306963
28 *86:27 *158:65 0
29 *458:A *86:10 1.54008e-05
30 *497:A2 *86:27 0
31 *64:12 *86:10 0
*RES
1 *462:Y *86:10 31.8038 
2 *86:10 *86:14 21.5862 
3 *86:14 *463:B 41.339 
4 *86:14 *86:27 33.5136 
5 *86:27 *491:A2 20 
*END

*D_NET *87 0.00300254
*CONN
*I *466:A I *D sg13g2_inv_1
*I *473:B I *D sg13g2_nand3_1
*I *474:A1 I *D sg13g2_o21ai_1
*I *465:X O *D sg13g2_and2_1
*CAP
1 *466:A 0.000387401
2 *473:B 0.000190072
3 *474:A1 0
4 *465:X 0.000122487
5 *87:23 0.000757011
6 *87:14 0.000169722
7 *87:6 0.000471747
8 *466:A *91:8 0
9 *466:A *188:8 0
10 *473:B *91:8 0
11 *473:B *188:8 0
12 *87:6 *125:8 0.000209713
13 *87:6 *166:66 0
14 *87:14 *474:A2 3.04166e-05
15 *87:14 *120:10 0.000342035
16 *87:23 *119:10 1.54008e-05
17 *87:23 *125:8 0.000306531
18 *87:23 *166:66 0
19 *45:23 *87:14 0
*RES
1 *465:X *87:6 21.4008 
2 *87:6 *87:14 42.284 
3 *87:14 *474:A1 20 
4 *87:6 *87:23 22.0497 
5 *87:23 *473:B 41.8334 
6 *87:23 *466:A 43.811 
*END

*D_NET *88 0.00101915
*CONN
*I *474:A2 I *D sg13g2_o21ai_1
*I *468:B I *D sg13g2_nor2_1
*I *467:Y O *D sg13g2_o21ai_1
*CAP
1 *474:A2 0.000322945
2 *468:B 8.13299e-05
3 *467:Y 8.23635e-05
4 *88:6 0.000486639
5 *468:B *467:B1 0
6 *468:B *115:39 0
7 *474:A2 *465:A 0
8 *474:A2 *465:B 0
9 *474:A2 *467:B1 0
10 *474:A2 *474:B1 1.54556e-05
11 *474:A2 *115:39 0
12 *474:A2 *125:8 0
13 *87:14 *474:A2 3.04166e-05
*RES
1 *467:Y *88:6 21.0918 
2 *88:6 *468:B 20.8858 
3 *88:6 *474:A2 23.5638 
*END

*D_NET *89 0.00115294
*CONN
*I *476:B I *D sg13g2_nand2_1
*I *470:B I *D sg13g2_and2_1
*I *469:Y O *D sg13g2_nor2_1
*CAP
1 *476:B 0
2 *470:B 0.000329943
3 *469:Y 0.000214994
4 *89:8 0.000544937
5 *470:B *476:A 0
6 *470:B *604:B 1.54008e-05
7 *470:B *178:14 0
8 *89:8 *478:B 0
9 *89:8 *166:56 4.76661e-05
*RES
1 *469:Y *89:8 22.2454 
2 *89:8 *470:B 23.2136 
3 *89:8 *476:B 20 
*END

*D_NET *90 0.000668223
*CONN
*I *473:C I *D sg13g2_nand3_1
*I *472:Y O *D sg13g2_nor2_1
*CAP
1 *473:C 0.000218142
2 *472:Y 0.000218142
3 *473:C *602:A 0.000209763
4 *473:C *166:66 2.21754e-05
*RES
1 *472:Y *473:C 42.3175 
*END

*D_NET *91 0.00140393
*CONN
*I *474:B1 I *D sg13g2_o21ai_1
*I *473:Y O *D sg13g2_nand3_1
*CAP
1 *474:B1 0.000116121
2 *473:Y 0.000433378
3 *91:8 0.000549499
4 *474:B1 *120:10 0
5 *474:B1 *175:12 0.000144783
6 *91:8 *187:8 0
7 *466:A *91:8 0
8 *473:B *91:8 0
9 *474:A2 *474:B1 1.54556e-05
10 *45:23 *474:B1 0.000144691
11 *45:23 *91:8 0
*RES
1 *473:Y *91:8 43.811 
2 *91:8 *474:B1 41.4008 
*END

*D_NET *92 0.000975851
*CONN
*I *479:D I *D sg13g2_nor4_1
*I *478:Y O *D sg13g2_nand2b_1
*CAP
1 *479:D 0
2 *478:Y 0.000376008
3 *92:10 0.000376008
4 *92:10 *115:31 0.000144113
5 *479:A *92:10 0
6 *53:34 *92:10 7.97219e-05
*RES
1 *478:Y *92:10 43.3578 
2 *92:10 *479:D 40 
*END

*D_NET *93 0.00112352
*CONN
*I *492:A I *D sg13g2_inv_1
*I *491:Y O *D sg13g2_a22oi_1
*CAP
1 *492:A 7.31802e-05
2 *491:Y 0.000195553
3 *93:10 0.000268733
4 *492:A *115:93 6.41852e-05
5 *492:A *115:101 4.77425e-05
6 *93:10 *491:B2 4.77537e-05
7 *93:10 *143:26 0
8 *93:10 *158:65 0.000145171
9 *93:10 *158:79 4.69809e-05
10 *54:22 *93:10 0.000234224
11 *82:32 *492:A 0
12 *86:27 *93:10 0
*RES
1 *491:Y *93:10 42.2763 
2 *93:10 *492:A 40.7519 
*END

*D_NET *94 0.00267048
*CONN
*I *494:A I *D sg13g2_inv_1
*I *493:Y O *D sg13g2_a22oi_1
*CAP
1 *494:A 6.74575e-05
2 *493:Y 0.000734767
3 *94:10 0.000802224
4 *494:A *143:26 0
5 *94:10 *541:A 0.000160758
6 *94:10 *115:179 0.000176537
7 *94:10 *158:94 4.77425e-05
8 *94:10 *159:38 0
9 *94:10 *159:99 0
10 *94:10 *168:12 0.000284465
11 result[5] *94:10 0
12 *495:A2 *94:10 0
13 *497:A2 *494:A 0.000112548
14 *507:D *494:A 4.78985e-05
15 *73:8 *94:10 0.000236081
16 *85:10 *94:10 0
*RES
1 *493:Y *94:10 47.4675 
2 *94:10 *494:A 40.7519 
*END

*D_NET *95 0.00220069
*CONN
*I *496:A I *D sg13g2_inv_1
*I *495:Y O *D sg13g2_a22oi_1
*CAP
1 *496:A 0
2 *495:Y 0.000577523
3 *95:10 0.000577523
4 *95:10 *495:B1 4.77425e-05
5 *95:10 *495:B2 0.000111966
6 *95:10 *542:A 0.000424775
7 *95:10 *143:26 7.56299e-05
8 *95:10 *158:79 7.96248e-05
9 *95:10 *168:12 0
10 result[5] *95:10 0.000305904
11 *495:A2 *95:10 0
12 *73:8 *95:10 0
*RES
1 *495:Y *95:10 45.8916 
2 *95:10 *496:A 40 
*END

*D_NET *96 0.00345319
*CONN
*I *498:A I *D sg13g2_inv_1
*I *497:Y O *D sg13g2_a22oi_1
*CAP
1 *498:A 0
2 *497:Y 0.000517637
3 *96:10 0.000517637
4 *96:10 *497:B2 0.000272538
5 *96:10 *115:140 0.000873273
6 *96:10 *143:18 0.000240328
7 *96:10 *155:26 0
8 *96:10 *167:21 0
9 result[3] *96:10 0
10 result[4] *96:10 0.00103178
*RES
1 *497:Y *96:10 47.8692 
2 *96:10 *498:A 40 
*END

*D_NET *97 0.0018352
*CONN
*I *500:A I *D sg13g2_inv_1
*I *499:Y O *D sg13g2_a22oi_1
*CAP
1 *500:A 0.000554772
2 *499:Y 0.000165919
3 *97:8 0.000720691
4 *500:A *501:B2 0
5 *500:A *502:A 0
6 *500:A *510:RESET_B 0
7 *500:A *510:CLK 0
8 *500:A *153:8 0
9 *500:A *155:26 0
10 *97:8 *499:B1 0.000318694
11 *97:8 *501:B2 0
12 *97:8 *158:27 7.51285e-05
13 *97:8 *159:46 0
14 *97:8 *167:81 0
15 *506:D *500:A 0
16 *510:D *500:A 0
*RES
1 *499:Y *97:8 42.0806 
2 *97:8 *500:A 45.7268 
*END

*D_NET *98 0.00112903
*CONN
*I *502:A I *D sg13g2_inv_1
*I *501:Y O *D sg13g2_a22oi_1
*CAP
1 *502:A 0.00044418
2 *501:Y 0.00044418
3 *502:A *501:B2 0.000144965
4 *502:A *510:RESET_B 7.09751e-05
5 *502:A *511:CLK 0
6 *502:A *512:RESET_B 0
7 *500:A *502:A 0
8 *510:D *502:A 0
9 *511:D *502:A 2.4729e-05
*RES
1 *501:Y *502:A 45.253 
*END

*D_NET *99 0.00127754
*CONN
*I *504:A I *D sg13g2_inv_1
*I *503:Y O *D sg13g2_a22oi_1
*CAP
1 *504:A 0
2 *503:Y 0.000220002
3 *99:10 0.000220002
4 *99:10 *499:B1 7.52149e-05
5 *99:10 *511:CLK 0
6 *99:10 *115:214 0.000340704
7 *99:10 *155:14 3.23417e-05
8 *99:10 *155:26 4.77425e-05
9 *99:10 *158:27 0.000341534
*RES
1 *503:Y *99:10 43.3578 
2 *99:10 *504:A 40 
*END

*D_NET *100 0.0149998
*CONN
*I *427:A1 I *D sg13g2_a21oi_1
*I *462:A1 I *D sg13g2_a21oi_1
*I *447:A1 I *D sg13g2_a21oi_1
*I *457:A1 I *D sg13g2_a21oi_1
*I *452:A1 I *D sg13g2_a21oi_1
*I *442:A1 I *D sg13g2_a21oi_1
*I *437:A1 I *D sg13g2_a21oi_1
*I *432:A1 I *D sg13g2_a21oi_1
*I *423:Y O *D sg13g2_inv_1
*CAP
1 *427:A1 0.000190727
2 *462:A1 0
3 *447:A1 4.82194e-05
4 *457:A1 0
5 *452:A1 0
6 *442:A1 0
7 *437:A1 6.9916e-05
8 *432:A1 3.55224e-05
9 *423:Y 0.000330154
10 *100:77 0.000123637
11 *100:71 0.000986925
12 *100:65 0.00116313
13 *100:63 0.000901778
14 *100:51 0.000785555
15 *100:40 0.000275525
16 *100:29 0.00053441
17 *100:18 0.00107721
18 *100:14 0.00110508
19 *100:8 0.000908641
20 *427:A1 *427:A2 0.000209856
21 *427:A1 *531:CLK 0
22 *432:A1 *432:A2 1.54556e-05
23 *432:A1 *439:B 0
24 *432:A1 *144:14 0
25 *437:A1 *142:14 0.000235556
26 *447:A1 *447:A2 0
27 *447:A1 *485:A 0
28 *100:14 *109:20 0
29 *100:14 *123:8 0
30 *100:14 *166:113 0
31 *100:18 *430:B_N 8.02105e-05
32 *100:18 *432:A2 0
33 *100:18 *115:81 0.000339459
34 *100:18 *115:83 0.000339262
35 *100:18 *144:14 4.79124e-05
36 *100:18 *160:55 0
37 *100:18 *160:74 0
38 *100:29 *435:B_N 0
39 *100:29 *439:B 0.000394965
40 *100:29 *142:14 0
41 *100:29 *160:55 0
42 *100:40 *142:14 0.000425172
43 *100:51 *141:28 0
44 *100:51 *142:14 0.000532723
45 *100:63 *462:A2 0.000208983
46 *100:63 *144:29 0.000340288
47 *100:63 *145:10 0
48 *100:63 *160:34 0.000391514
49 *100:63 *161:42 0
50 *100:63 *164:98 0
51 *100:63 *169:6 1.54008e-05
52 *100:63 *169:105 7.53209e-05
53 *100:65 *485:A 0.000176068
54 *100:65 *134:24 0
55 *100:65 *138:24 0.000402668
56 *100:71 *447:A2 0.000194291
57 *100:71 *457:B1 0
58 *100:71 *560:A 0
59 *100:71 *561:A 0
60 *100:71 *103:31 1.54008e-05
61 *100:71 *105:12 0.000112826
62 *100:71 *122:25 0
63 *100:71 *123:23 8.00842e-05
64 *100:71 *164:6 0.000241847
65 *100:71 *164:16 0
66 *100:71 *164:24 9.08521e-05
67 *100:77 *460:B_N 0
68 *100:77 *539:A 0
69 *100:77 *159:10 0
70 bit_active[7] *100:71 0
71 dac_code[4] *100:65 0
72 *489:B *100:71 0
73 *501:A2 *427:A1 0
74 *501:A2 *100:8 0
75 *50:8 *437:A1 0
76 *60:14 *100:51 0.000287342
77 *62:8 *100:18 7.91347e-05
78 *64:12 *100:63 0
79 *79:12 *427:A1 0.000259314
80 *79:12 *100:8 0.00046934
81 *79:27 *427:A1 8.02431e-05
82 *80:8 *100:18 0
83 *85:26 *100:71 1.54556e-05
84 *86:10 *100:63 0.000306414
*RES
1 *423:Y *100:8 23.9758 
2 *100:8 *100:14 44.3054 
3 *100:14 *100:18 7.4366 
4 *100:18 *432:A1 20.5356 
5 *100:18 *100:29 23.5638 
6 *100:29 *437:A1 41.0918 
7 *100:29 *100:40 2.0806 
8 *100:40 *442:A1 40 
9 *100:40 *100:51 22.575 
10 *100:51 *100:63 47.7044 
11 *100:63 *100:65 2.9149 
12 *100:65 *100:71 7.9449 
13 *100:71 *100:77 41.339 
14 *100:77 *452:A1 20 
15 *100:71 *457:A1 20 
16 *100:65 *447:A1 20.5613 
17 *100:51 *462:A1 20 
18 *100:8 *427:A1 22.266 
*END

*D_NET *101 0.000522567
*CONN
*I *475:A1 I *D sg13g2_o21ai_1
*I *425:Y O *D sg13g2_inv_1
*CAP
1 *475:A1 0.000157298
2 *425:Y 0.000157298
3 *475:A1 *589:A 0.000207972
4 *475:A1 *591:A 0
5 *475:A1 *177:10 0
*RES
1 *425:Y *475:A1 41.751 
*END

*D_NET *102 0.00535668
*CONN
*I *462:A2 I *D sg13g2_a21oi_1
*I *535:A I *D sg13g2_buf_1
*I *524:Q O *D sg13g2_dfrbpq_1
*CAP
1 *462:A2 0.000115974
2 *535:A 0
3 *524:Q 0.000168593
4 *102:33 0.00140209
5 *102:14 0.00142842
6 *102:10 0.000310895
7 *102:10 *143:34 8.02485e-05
8 *102:10 *159:10 0.000287306
9 *102:10 *159:18 7.97646e-05
10 *102:10 *159:26 0
11 *102:10 *172:16 0
12 *102:14 *143:34 0
13 *102:14 *160:12 0
14 *102:33 *145:10 0
15 *102:33 *160:12 0
16 *102:33 *160:23 0.00040424
17 *102:33 *160:34 0.000460877
18 *490:A_N *102:33 0
19 *64:12 *462:A2 0.000208824
20 *65:10 *102:14 0
21 *65:10 *102:33 0.000200466
22 *100:63 *462:A2 0.000208983
*RES
1 *524:Q *102:10 42.1218 
2 *102:10 *102:14 21.1819 
3 *102:14 *535:A 20 
4 *102:14 *102:33 32.5171 
5 *102:33 *462:A2 41.4008 
*END

*D_NET *103 0.000782346
*CONN
*I *457:A2 I *D sg13g2_a21oi_1
*I *459:B I *D sg13g2_and2_1
*I *525:Q O *D sg13g2_dfrbpq_1
*CAP
1 *457:A2 0
2 *459:B 4.00893e-05
3 *525:Q 0.000189571
4 *103:31 0.000129927
5 *103:10 0.000359588
6 *459:B *164:24 0
7 *459:B *174:25 0
8 *103:10 *164:16 0
9 *103:10 *164:24 0
10 *103:10 *165:8 0
11 *103:10 *173:31 0
12 *103:10 *173:39 0
13 *103:10 *174:25 0
14 *103:31 *452:A2 0
15 *103:31 *460:B_N 0
16 *103:31 *582:A 0
17 *103:31 *164:24 4.77702e-05
18 bit_active[4] *103:10 0
19 bit_active[6] *103:31 0
20 *100:71 *103:31 1.54008e-05
*RES
1 *525:Q *103:10 21.8228 
2 *103:10 *459:B 20.4609 
3 *103:10 *103:31 41.5064 
4 *103:31 *457:A2 20 
*END

*D_NET *104 0.00277652
*CONN
*I *454:B I *D sg13g2_and2_1
*I *452:A2 I *D sg13g2_a21oi_1
*I *526:Q O *D sg13g2_dfrbpq_1
*CAP
1 *454:B 0.000193265
2 *452:A2 0.000214523
3 *526:Q 0.000195366
4 *104:18 0.000562672
5 *104:8 0.000736779
6 *452:A2 *457:B1 1.54008e-05
7 *452:A2 *164:24 0
8 *454:B *164:24 0.000306128
9 *104:18 *460:B_N 0.000181694
10 *104:18 *164:24 0
11 *104:18 *172:34 0
12 bit_active[0] *104:8 0
13 bit_active[2] *104:8 0
14 *495:A2 *452:A2 0
15 *85:10 *452:A2 0
16 *85:10 *454:B 0
17 *85:10 *104:18 0.000370696
18 *103:31 *452:A2 0
*RES
1 *526:Q *104:8 42.0806 
2 *104:8 *104:18 43.9243 
3 *104:18 *452:A2 41.8334 
4 *104:8 *454:B 42.0497 
*END

*D_NET *105 0.00136674
*CONN
*I *447:A2 I *D sg13g2_a21oi_1
*I *449:B I *D sg13g2_and2_1
*I *527:Q O *D sg13g2_dfrbpq_1
*CAP
1 *447:A2 0.000170969
2 *449:B 0
3 *527:Q 0
4 *105:12 0.000165106
5 *105:4 0.000336075
6 *447:A2 *485:A 0
7 *447:A2 *560:A 0.000199575
8 *447:A2 *164:56 0
9 *105:12 *560:A 0.000112766
10 dac_code[6] *105:12 7.51285e-05
11 *447:A1 *447:A2 0
12 *100:71 *447:A2 0.000194291
13 *100:71 *105:12 0.000112826
*RES
1 *527:Q *105:4 20 
2 *105:4 *105:12 41.8437 
3 *105:12 *449:B 20 
4 *105:4 *447:A2 22.0703 
*END

*D_NET *106 0.00273796
*CONN
*I *444:B I *D sg13g2_and2_1
*I *442:A2 I *D sg13g2_a21oi_1
*I *528:Q O *D sg13g2_dfrbpq_1
*CAP
1 *444:B 9.48523e-05
2 *442:A2 0.000393642
3 *528:Q 0.000614619
4 *106:6 0.00110311
5 *442:A2 *444:A 0
6 *442:A2 *141:28 0
7 *442:A2 *169:113 0.000306517
8 *444:B *444:A 8.02105e-05
9 *106:6 *462:B1 0
10 *106:6 *516:CLK 0
11 *106:6 *169:113 0
12 *106:6 *170:8 0
13 *60:14 *442:A2 0
14 *60:14 *444:B 0.000145003
15 *60:14 *106:6 0
16 *82:10 *442:A2 0
*RES
1 *528:Q *106:6 26.3757 
2 *106:6 *442:A2 23.7286 
3 *106:6 *444:B 21.3184 
*END

*D_NET *107 0.000402169
*CONN
*I *439:A I *D sg13g2_and2_1
*I *437:A2 I *D sg13g2_a21oi_1
*I *529:Q O *D sg13g2_dfrbpq_1
*CAP
1 *439:A 4.72978e-05
2 *437:A2 0.000153787
3 *529:Q 0.000201085
4 *437:A2 *439:B 0
5 *437:A2 *142:14 0
6 *521:D *437:A2 0
7 *81:10 *437:A2 0
*RES
1 *529:Q *437:A2 41.6171 
2 *529:Q *439:A 40.5974 
*END

*D_NET *108 0.00218345
*CONN
*I *434:A I *D sg13g2_and2_1
*I *432:A2 I *D sg13g2_a21oi_1
*I *530:Q O *D sg13g2_dfrbpq_1
*CAP
1 *434:A 0
2 *432:A2 0.000103323
3 *530:Q 0.000299415
4 *108:10 0.000402737
5 *432:A2 *435:B_N 0.00012816
6 *432:A2 *439:B 8.01776e-05
7 *432:A2 *122:25 0.000182121
8 *432:A2 *144:14 0.000287672
9 *108:10 *522:CLK 0
10 *108:10 *122:25 0.000106064
11 *108:10 *144:14 0.000128247
12 *432:A1 *432:A2 1.54556e-05
13 *448:B *108:10 0
14 *497:A2 *108:10 0
15 *80:8 *432:A2 1.54008e-05
16 *82:32 *108:10 0.000434673
17 *100:18 *432:A2 0
*RES
1 *530:Q *108:10 43.5123 
2 *108:10 *432:A2 41.8746 
3 *108:10 *434:A 40 
*END

*D_NET *109 0.00159497
*CONN
*I *427:A2 I *D sg13g2_a21oi_1
*I *429:B I *D sg13g2_and2_1
*I *531:Q O *D sg13g2_dfrbpq_1
*CAP
1 *427:A2 0.000110366
2 *429:B 0.000162843
3 *531:Q 0.000437187
4 *109:20 0.000384711
5 *427:A2 *531:CLK 0.000209763
6 *429:B *115:83 0
7 *429:B *166:113 8.02431e-05
8 *427:A1 *427:A2 0.000209856
9 *501:A2 *429:B 0
10 *52:29 *109:20 0
11 *100:14 *109:20 0
*RES
1 *531:Q *429:B 41.6171 
2 *531:Q *109:20 43.0694 
3 *109:20 *427:A2 41.4008 
*END

*D_NET *110 0.00256939
*CONN
*I *423:A I *D sg13g2_inv_1
*I *588:B I *D sg13g2_nor2_1
*I *587:Y O *D sg13g2_nor2_1
*CAP
1 *423:A 0
2 *588:B 0
3 *587:Y 0
4 *110:25 0.000252599
5 *110:12 0.000412599
6 *110:4 0.000665198
7 *110:12 *471:C 0
8 *110:12 *471:A_N 0.000106333
9 *110:12 *476:A 0.000342932
10 *110:12 *587:A 0
11 *110:12 *605:A 0
12 *110:12 *118:10 0.000607702
13 *110:25 *471:A_N 0
14 *110:25 *168:59 0
15 *501:A2 *110:25 0
16 *79:12 *110:25 0.000182023
*RES
1 *587:Y *110:4 20 
2 *110:4 *110:12 45.4281 
3 *110:12 *588:B 20 
4 *110:4 *110:25 42.7357 
5 *110:25 *423:A 20 
*END

*D_NET *111 0.000443024
*CONN
*I *587:A I *D sg13g2_nor2_1
*I *471:Y O *D sg13g2_nand3b_1
*CAP
1 *587:A 0.000221512
2 *471:Y 0.000221512
3 *587:A *471:C 0
4 *587:A *605:A 0
5 *587:A *166:50 0
6 *110:12 *587:A 0
*RES
1 *471:Y *587:A 41.9673 
*END

*D_NET *112 0.000589034
*CONN
*I *588:A I *D sg13g2_nor2_1
*I *468:Y O *D sg13g2_nor2_1
*CAP
1 *588:A 0
2 *468:Y 0.000294517
3 *112:10 0.000294517
4 *112:10 *115:39 0
5 *112:10 *132:25 0
*RES
1 *468:Y *112:10 42.9561 
2 *112:10 *588:A 40 
*END

*D_NET *113 0.00218444
*CONN
*I *589:A I *D sg13g2_dlygate4sd3_1
*I *478:A_N I *D sg13g2_nand2b_1
*I *592:B I *D sg13g2_nor2_1
*I *591:Y O *D sg13g2_nor2_1
*CAP
1 *589:A 0.000171294
2 *478:A_N 4.96519e-05
3 *592:B 0
4 *591:Y 0.000140053
5 *113:16 0.000292055
6 *113:8 0.00055375
7 *589:A *425:A 0
8 *589:A *126:10 0.000304824
9 *589:A *177:10 0
10 *113:8 *175:12 0.000289234
11 *113:16 *591:B 0.000175608
12 *113:16 *603:A 0
13 *113:16 *115:31 0
14 *113:16 *127:12 0
15 *475:A1 *589:A 0.000207972
*RES
1 *591:Y *113:8 41.8334 
2 *113:8 *113:16 22.5029 
3 *113:16 *592:B 20 
4 *113:16 *478:A_N 20.5974 
5 *113:8 *589:A 42.0497 
*END

*D_NET *114 0.000308466
*CONN
*I *591:A I *D sg13g2_nor2_1
*I *475:Y O *D sg13g2_o21ai_1
*CAP
1 *591:A 0.000146533
2 *475:Y 0.000146533
3 *591:A *475:B1 0
4 *591:A *596:A 0
5 *591:A *175:12 1.54008e-05
6 *591:A *177:10 0
7 *475:A1 *591:A 0
*RES
1 *475:Y *591:A 41.6274 
*END

*D_NET *115 0.0408188
*CONN
*I *520:CLK I *D sg13g2_dfrbpq_1
*I *518:CLK I *D sg13g2_dfrbpq_1
*I *517:CLK I *D sg13g2_dfrbpq_1
*I *516:CLK I *D sg13g2_dfrbpq_1
*I *528:CLK I *D sg13g2_dfrbpq_1
*I *521:CLK I *D sg13g2_dfrbpq_1
*I *529:CLK I *D sg13g2_dfrbpq_1
*I *523:CLK I *D sg13g2_dfrbpq_1
*I *522:CLK I *D sg13g2_dfrbpq_1
*I *519:CLK I *D sg13g2_dfrbpq_1
*I *527:CLK I *D sg13g2_dfrbpq_1
*I *530:CLK I *D sg13g2_dfrbpq_1
*I *514:CLK I *D sg13g2_dfrbpq_1
*I *524:CLK I *D sg13g2_dfrbpq_1
*I *513:CLK I *D sg13g2_dfrbpq_1
*I *512:CLK I *D sg13g2_dfrbpq_1
*I *515:CLK I *D sg13g2_dfrbpq_1
*I *526:CLK I *D sg13g2_dfrbpq_1
*I *525:CLK I *D sg13g2_dfrbpq_1
*I *508:CLK I *D sg13g2_dfrbpq_1
*I *509:CLK I *D sg13g2_dfrbpq_1
*I *507:CLK I *D sg13g2_dfrbpq_1
*I *506:CLK I *D sg13g2_dfrbpq_1
*I *510:CLK I *D sg13g2_dfrbpq_1
*I *511:CLK I *D sg13g2_dfrbpq_1
*I *531:CLK I *D sg13g2_dfrbpq_1
*I *479:B I *D sg13g2_nor4_1
*I *469:B I *D sg13g2_nor2_1
*I *597:A I *D sg13g2_dlygate4sd3_1
*I *425:A I *D sg13g2_inv_1
*I *590:X O *D sg13g2_dlygate4sd3_1
*CAP
1 *520:CLK 0.000107249
2 *518:CLK 3.03095e-05
3 *517:CLK 0.00019175
4 *516:CLK 0.000292975
5 *528:CLK 0.000617228
6 *521:CLK 0
7 *529:CLK 0
8 *523:CLK 0
9 *522:CLK 2.92226e-05
10 *519:CLK 0.000268443
11 *527:CLK 0.000208189
12 *530:CLK 0
13 *514:CLK 0
14 *524:CLK 0.000438168
15 *513:CLK 4.72978e-05
16 *512:CLK 0
17 *515:CLK 1.44466e-05
18 *526:CLK 3.34393e-05
19 *525:CLK 0.000191918
20 *508:CLK 0
21 *509:CLK 0
22 *507:CLK 0.000280492
23 *506:CLK 2.58084e-05
24 *510:CLK 0.000230528
25 *511:CLK 0.000276261
26 *531:CLK 0.000393628
27 *479:B 0
28 *469:B 3.74146e-05
29 *597:A 0
30 *425:A 0.000230556
31 *590:X 0.000646081
32 *115:356 0.00055218
33 *115:341 0.000836529
34 *115:337 0.000510303
35 *115:317 0.000617228
36 *115:315 0.000625304
37 *115:304 0.000535818
38 *115:300 0.000584055
39 *115:259 0.000876322
40 *115:253 0.000904104
41 *115:214 0.000500382
42 *115:183 0.000653322
43 *115:179 0.000846536
44 *115:168 0.000667509
45 *115:146 0.000414024
46 *115:140 0.00080355
47 *115:127 0.000568922
48 *115:103 0.000773908
49 *115:101 0.000726977
50 *115:93 0.00139843
51 *115:91 0.000824413
52 *115:89 0.000839754
53 *115:83 0.0011361
54 *115:81 0.00111144
55 *115:77 0.00101107
56 *115:73 0.000408698
57 *115:62 0.000774315
58 *115:39 0.000877633
59 *115:31 0.00159146
60 *115:25 0.00083524
61 *115:10 0.000587702
62 *115:8 0.000693868
63 *425:A *177:10 0
64 *506:CLK *572:A 4.77702e-05
65 *506:CLK *152:14 4.77702e-05
66 *507:CLK *493:B2 0
67 *507:CLK *507:RESET_B 0
68 *510:CLK *167:64 0
69 *511:CLK *501:B2 0
70 *511:CLK *512:RESET_B 0
71 *511:CLK *158:27 0
72 *511:CLK *167:27 0
73 *511:CLK *167:40 0.000342122
74 *516:CLK *170:8 0
75 *517:CLK *140:37 0
76 *517:CLK *162:43 0.000209868
77 *518:CLK *141:18 0
78 *518:CLK *162:43 0
79 *519:CLK *457:B1 0
80 *519:CLK *122:25 0
81 *519:CLK *160:34 0
82 *520:CLK *169:113 0.000209423
83 *524:CLK *460:B_N 4.77425e-05
84 *524:CLK *124:8 0.000371702
85 *524:CLK *124:27 3.23694e-05
86 *527:CLK *457:B1 0
87 *527:CLK *160:23 0.000339327
88 *527:CLK *160:34 1.54008e-05
89 *528:CLK *520:RESET_B 0
90 *528:CLK *528:RESET_B 0
91 *528:CLK *169:113 0
92 *531:CLK *530:RESET_B 0
93 *115:10 *127:23 0
94 *115:25 *126:10 0
95 *115:25 *127:23 9.67074e-05
96 *115:31 *424:A 0
97 *115:31 *478:B 0.000207804
98 *115:31 *127:12 0.000208188
99 *115:31 *127:23 4.76456e-05
100 *115:31 *166:56 0
101 *115:39 *478:B 0
102 *115:39 *604:B 0
103 *115:39 *118:10 0
104 *115:39 *132:25 0
105 *115:39 *166:56 0
106 *115:39 *178:14 0
107 *115:62 *127:23 0
108 *115:77 *127:23 0
109 *115:77 *169:29 0
110 *115:77 *169:33 0
111 *115:81 *160:55 0.000324003
112 *115:83 *430:A 8.01445e-05
113 *115:83 *430:B_N 0
114 *115:83 *124:16 0.000274584
115 *115:83 *160:55 0.000209763
116 *115:83 *160:74 0
117 *115:83 *166:14 0
118 *115:83 *166:29 0
119 *115:83 *166:98 0
120 *115:83 *166:113 0
121 *115:89 *480:B 0
122 *115:89 *505:A0 0
123 *115:89 *160:91 0
124 *115:93 *481:A 0
125 *115:93 *158:65 0
126 *115:101 *491:B2 0
127 *115:101 *152:14 0
128 *115:101 *158:79 0
129 *115:101 *167:81 0
130 *115:103 *155:26 0
131 *115:103 *167:25 0
132 *115:103 *167:27 0
133 *115:127 *155:26 0
134 *115:127 *167:25 0
135 *115:140 *159:109 0.000341534
136 *115:140 *167:21 0
137 *115:140 *167:25 0
138 *115:168 *541:A 0
139 *115:179 *580:A 0.000274769
140 *115:183 *580:A 0.000264379
141 *115:183 *583:A 8.00842e-05
142 *115:214 *158:23 0.000241631
143 *115:214 *159:46 0.000447598
144 *115:214 *159:57 0
145 *115:253 *127:23 0
146 *115:253 *169:27 0
147 *115:259 *169:27 0.000340374
148 *115:259 *173:18 7.48178e-05
149 *115:315 *529:RESET_B 0.000340704
150 *115:315 *170:23 0.000128663
151 *115:315 *170:25 0.000395396
152 *115:337 *169:113 0.000144519
153 *115:337 *170:23 0.000372797
154 *115:341 *137:16 0.000128663
155 *115:341 *170:23 0
156 *115:356 *137:16 0.00063306
157 *115:356 *139:12 0.000126358
158 *115:356 *140:37 0
159 *115:356 *141:18 0
160 *115:356 *162:43 0
161 bit_active[2] *115:183 0.000176498
162 result[5] *115:168 0
163 *427:A1 *531:CLK 0
164 *427:A2 *531:CLK 0.000209763
165 *427:B1 *531:CLK 0
166 *427:B1 *115:62 0
167 *429:B *115:83 0
168 *448:B *522:CLK 4.77425e-05
169 *468:B *115:39 0
170 *469:A *115:31 0
171 *474:A2 *115:39 0
172 *479:A *115:31 0
173 *490:A_N *519:CLK 0
174 *492:A *115:93 6.41852e-05
175 *492:A *115:101 4.77425e-05
176 *495:A2 *525:CLK 0.000274709
177 *495:A2 *115:179 0
178 *495:A2 *115:183 0
179 *500:A *510:CLK 0
180 *501:A2 *531:CLK 0
181 *501:A2 *115:62 0
182 *501:A2 *115:214 0
183 *502:A *511:CLK 0
184 *503:A2 *115:83 0
185 *506:D *510:CLK 0
186 *506:D *115:101 0
187 *521:D *115:304 0
188 *521:D *115:315 0
189 *531:D *115:31 4.77425e-05
190 *589:A *425:A 0
191 *51:8 *115:300 0
192 *51:20 *115:300 0
193 *51:20 *115:304 0.000144521
194 *52:8 *115:83 0
195 *53:34 *115:31 0
196 *54:22 *115:214 0.000394566
197 *59:8 *115:356 0
198 *61:8 *115:259 0.000180882
199 *63:12 *528:CLK 0
200 *69:10 *115:253 0.000181608
201 *82:10 *520:CLK 0.000194395
202 *82:10 *115:315 0
203 *82:10 *115:337 0.000145003
204 *82:32 *524:CLK 0.000127925
205 *82:32 *115:91 0
206 *82:32 *115:93 0
207 *83:8 *115:259 0
208 *85:10 *515:CLK 0
209 *85:10 *525:CLK 0
210 *85:10 *115:179 0.00024199
211 *85:10 *115:183 0
212 *86:27 *524:CLK 0
213 *86:27 *115:91 0
214 *86:27 *115:93 0
215 *92:10 *115:31 0.000144113
216 *94:10 *115:179 0.000176537
217 *96:10 *115:140 0.000873273
218 *99:10 *511:CLK 0
219 *99:10 *115:214 0.000340704
220 *100:18 *115:81 0.000339459
221 *100:18 *115:83 0.000339262
222 *106:6 *516:CLK 0
223 *108:10 *522:CLK 0
224 *112:10 *115:39 0
225 *113:16 *115:31 0
*RES
1 *590:X *115:8 41.8334 
2 *115:8 *115:10 2.3278 
3 *115:10 *425:A 42.1527 
4 *115:10 *115:25 21.6171 
5 *115:25 *115:31 6.6126 
6 *115:31 *115:39 49.0434 
7 *115:39 *597:A 20 
8 *115:31 *469:B 20.3502 
9 *115:25 *479:B 20 
10 *115:8 *115:62 22.6233 
11 *115:62 *531:CLK 22.8682 
12 *115:62 *115:73 0.5974 
13 *115:73 *115:77 23.0694 
14 *115:77 *115:81 22.266 
15 *115:81 *115:83 9.6202 
16 *115:83 *115:89 42.3278 
17 *115:89 *115:91 2.266 
18 *115:91 *115:93 4.0321 
19 *115:93 *115:101 22.5974 
20 *115:101 *115:103 2.575 
21 *115:103 *511:CLK 43.3887 
22 *115:103 *510:CLK 42.4617 
23 *115:101 *115:127 1.339 
24 *115:127 *506:CLK 40.3193 
25 *115:127 *115:140 25.5414 
26 *115:140 *115:146 41.6171 
27 *115:146 *507:CLK 22.6162 
28 *115:146 *509:CLK 20 
29 *115:140 *115:168 42.8325 
30 *115:168 *508:CLK 20 
31 *115:168 *115:179 4.4496 
32 *115:179 *115:183 4.3466 
33 *115:183 *525:CLK 22.1836 
34 *115:183 *526:CLK 20.3502 
35 *115:179 *515:CLK 20.3502 
36 *115:93 *115:214 46.1697 
37 *115:214 *512:CLK 20 
38 *115:91 *513:CLK 20.5974 
39 *115:89 *524:CLK 25.047 
40 *115:83 *514:CLK 20 
41 *115:81 *530:CLK 20 
42 *115:77 *115:253 4.1303 
43 *115:253 *115:259 24.1303 
44 *115:259 *527:CLK 22.266 
45 *115:259 *519:CLK 22.1836 
46 *115:253 *522:CLK 40.3193 
47 *115:73 *523:CLK 20 
48 *590:X *115:300 45.2736 
49 *115:300 *115:304 20.9682 
50 *115:304 *529:CLK 20 
51 *115:304 *115:315 25.6444 
52 *115:315 *115:317 20 
53 *115:317 *521:CLK 20 
54 *115:317 *528:CLK 26.5096 
55 *115:315 *115:337 22.8016 
56 *115:337 *115:341 22.575 
57 *115:341 *516:CLK 43.1312 
58 *115:341 *115:356 24.0376 
59 *115:356 *517:CLK 21.8334 
60 *115:356 *518:CLK 20.3502 
61 *115:337 *520:CLK 21.4008 
*END

*D_NET *116 0.000115806
*CONN
*I *470:A I *D sg13g2_and2_1
*I *599:X O *D sg13g2_dlygate4sd3_1
*CAP
1 *470:A 5.79028e-05
2 *599:X 5.79028e-05
*RES
1 *599:X *470:A 40.5974 
*END

*D_NET *117 0.000574495
*CONN
*I *604:A I *D sg13g2_nor2_1
*I *476:Y O *D sg13g2_nand2_1
*CAP
1 *604:A 0
2 *476:Y 7.98669e-05
3 *117:8 7.98669e-05
4 *117:8 *178:14 0.000234158
5 *117:8 *189:8 0.000180603
*RES
1 *476:Y *117:8 41.339 
2 *117:8 *604:A 40 
*END

*D_NET *118 0.00215473
*CONN
*I *471:A_N I *D sg13g2_nand3b_1
*I *605:A I *D sg13g2_nor2_1
*I *470:X O *D sg13g2_and2_1
*CAP
1 *471:A_N 0.000175424
2 *605:A 0.000224075
3 *470:X 0.000232855
4 *118:10 0.000632353
5 *471:A_N *471:C 4.77425e-05
6 *471:A_N *476:A 0
7 *471:A_N *168:59 0.000128247
8 *605:A *476:A 0
9 *118:10 *476:A 0
10 *587:A *605:A 0
11 *110:12 *471:A_N 0.000106333
12 *110:12 *605:A 0
13 *110:12 *118:10 0.000607702
14 *110:25 *471:A_N 0
15 *115:39 *118:10 0
*RES
1 *470:X *118:10 43.3578 
2 *118:10 *605:A 41.6863 
3 *118:10 *471:A_N 42.1527 
*END

*D_NET *119 0.00060901
*CONN
*I *600:A I *D sg13g2_dlygate4sd3_1
*I *473:A I *D sg13g2_nand3_1
*I *596:X O *D sg13g2_dlygate4sd3_1
*CAP
1 *600:A 0
2 *473:A 5.2983e-05
3 *596:X 0.000243822
4 *119:10 0.000296805
5 *119:10 *125:8 0
6 *119:10 *166:66 0
7 *87:23 *119:10 1.54008e-05
*RES
1 *596:X *119:10 22.5647 
2 *119:10 *473:A 20.5974 
3 *119:10 *600:A 20 
*END

*D_NET *120 0.00156155
*CONN
*I *472:B I *D sg13g2_nor2_1
*I *603:X O *D sg13g2_dlygate4sd3_1
*CAP
1 *472:B 0
2 *603:X 0.000306367
3 *120:10 0.000306367
4 *120:10 *601:A 0
5 *474:B1 *120:10 0
6 *45:23 *120:10 0.00060678
7 *87:14 *120:10 0.000342035
*RES
1 *603:X *120:10 44.223 
2 *120:10 *472:B 40 
*END

*D_NET *121 0.00280635
*CONN
*I *468:A I *D sg13g2_nor2_1
*I *465:A I *D sg13g2_and2_1
*I *467:A1 I *D sg13g2_o21ai_1
*I *464:A I *D sg13g2_nor2_1
*I *545:X O *D sg13g2_buf_1
*CAP
1 *468:A 0.000116254
2 *465:A 0.000122585
3 *467:A1 0
4 *464:A 0
5 *545:X 0.00087373
6 *121:28 0.000272628
7 *121:19 0.000138232
8 *121:10 0.000978174
9 *465:A *465:B 8.01176e-05
10 *465:A *467:B1 4.77154e-05
11 *468:A *166:56 0
12 *121:10 *132:12 0
13 *121:10 *166:66 0
14 *121:19 *166:66 0
15 *474:A2 *465:A 0
16 *545:A *121:10 0
17 *45:9 *121:10 0.000176914
*RES
1 *545:X *121:10 49.9086 
2 *121:10 *464:A 40 
3 *121:10 *121:19 1.0918 
4 *121:19 *467:A1 40 
5 *121:19 *121:28 0.3502 
6 *121:28 *465:A 41.5038 
7 *121:28 *468:A 41.339 
*END

*D_NET *122 0.00691632
*CONN
*I *548:A I *D sg13g2_buf_1
*I *435:B_N I *D sg13g2_nor2b_1
*I *434:X O *D sg13g2_and2_1
*CAP
1 *548:A 0
2 *435:B_N 0.00067405
3 *434:X 2.7202e-05
4 *122:25 0.00103403
5 *122:8 0.00173528
6 *435:B_N *435:A 0
7 *435:B_N *142:14 0
8 *435:B_N *144:14 0
9 *435:B_N *160:55 0
10 *122:8 *439:B 4.74263e-05
11 *122:25 *447:B1 0
12 *122:25 *457:B1 0.00069565
13 *122:25 *144:6 0.000110829
14 *122:25 *144:14 0
15 *122:25 *164:6 0
16 *122:25 *164:83 0
17 *427:B1 *435:B_N 0.000236274
18 *432:A2 *435:B_N 0.00012816
19 *432:A2 *122:25 0.000182121
20 *489:B *122:25 0
21 *490:A_N *122:25 4.67945e-05
22 *501:A2 *435:B_N 0
23 *519:CLK *122:25 0
24 *62:21 *435:B_N 0.000394248
25 *62:21 *122:25 0.00137564
26 *62:42 *122:25 7.51285e-05
27 *63:12 *122:8 4.74263e-05
28 *100:29 *435:B_N 0
29 *100:71 *122:25 0
30 *108:10 *122:25 0.000106064
*RES
1 *434:X *122:8 40.3193 
2 *122:8 *435:B_N 47.4675 
3 *122:8 *122:25 32.0716 
4 *122:25 *548:A 20 
*END

*D_NET *123 0.00347825
*CONN
*I *549:A I *D sg13g2_buf_1
*I *430:B_N I *D sg13g2_nor2b_1
*I *429:X O *D sg13g2_and2_1
*CAP
1 *549:A 0
2 *430:B_N 0.000153566
3 *429:X 5.77725e-05
4 *123:23 0.00103881
5 *123:8 0.00125014
6 *430:B_N *160:74 0.000242236
7 *123:8 *166:113 0.000181695
8 *123:23 *136:8 0
9 *123:23 *143:42 0.00012816
10 *123:23 *160:12 0
11 *123:23 *166:113 0.000265575
12 bit_active[6] *123:23 0
13 *463:B *123:23 0
14 *52:16 *123:23 0
15 *85:26 *123:23 0
16 *100:14 *123:8 0
17 *100:18 *430:B_N 8.02105e-05
18 *100:71 *123:23 8.00842e-05
19 *115:83 *430:B_N 0
*RES
1 *429:X *123:8 40.8446 
2 *123:8 *430:B_N 41.6171 
3 *123:8 *123:23 30.5266 
4 *123:23 *549:A 20 
*END

*D_NET *124 0.0109608
*CONN
*I *539:A I *D sg13g2_buf_1
*I *538:A I *D sg13g2_buf_1
*I *540:A I *D sg13g2_buf_1
*I *514:Q O *D sg13g2_dfrbpq_1
*CAP
1 *539:A 0.000428652
2 *538:A 0
3 *540:A 0
4 *514:Q 0.000313888
5 *124:35 0.00120903
6 *124:27 0.00191033
7 *124:16 0.000327932
8 *124:8 0.000914467
9 *539:A *159:10 0
10 *539:A *168:40 0
11 *124:16 *160:74 0.000274452
12 *124:16 *168:40 0.000553247
13 *124:27 *168:40 0
14 *124:35 *163:10 0
15 *124:35 *169:105 0.000435856
16 *463:B *124:16 0
17 *463:B *124:27 7.51285e-05
18 *497:A2 *124:35 0
19 *519:D *124:35 0.000102413
20 *524:CLK *124:8 0.000371702
21 *524:CLK *124:27 3.23694e-05
22 *527:D *124:35 0
23 *46:16 *124:16 0.000340704
24 *60:14 *124:35 1.54008e-05
25 *63:12 *124:35 0
26 *82:32 *124:27 0
27 *82:32 *124:35 0
28 *84:25 *539:A 0.000229743
29 *85:26 *539:A 0.000757169
30 *86:10 *124:35 0.00127718
31 *86:14 *539:A 7.51285e-05
32 *86:14 *124:27 0.000265575
33 *86:27 *124:8 0.000501188
34 *86:27 *124:27 0.000274622
35 *100:77 *539:A 0
36 *115:83 *124:16 0.000274584
*RES
1 *514:Q *124:8 23.6977 
2 *124:8 *124:16 44.9028 
3 *124:16 *540:A 20 
4 *124:8 *124:27 23.4196 
5 *124:27 *124:35 32.669 
6 *124:35 *538:A 20 
7 *124:27 *539:A 45.3354 
*END

*D_NET *125 0.00859571
*CONN
*I *551:A I *D sg13g2_buf_1
*I *464:Y O *D sg13g2_nor2_1
*CAP
1 *551:A 0
2 *464:Y 0.00242801
3 *125:12 0.00150677
4 *125:8 0.00393479
5 *125:8 *464:B 0
6 *125:8 *465:B 0.000209895
7 *125:8 *532:A 0
8 *125:8 *594:A 0
9 *125:8 *596:A 0
10 *125:8 *601:A 0
11 *125:8 *132:25 0
12 *125:8 *147:10 0
13 *125:8 *166:66 0
14 *125:8 *177:10 0
15 *125:8 *182:10 0
16 *474:A2 *125:8 0
17 *45:9 *125:8 0
18 *45:23 *125:8 0
19 *87:6 *125:8 0.000209713
20 *87:23 *125:8 0.000306531
21 *119:10 *125:8 0
*RES
1 *464:Y *125:8 46.1929 
2 *125:8 *125:12 39.6318 
3 *125:12 *551:A 40 
*END

*D_NET *126 0.00234314
*CONN
*I *552:A I *D sg13g2_buf_1
*I *479:Y O *D sg13g2_nor4_1
*CAP
1 *552:A 0
2 *479:Y 0.000848346
3 *126:10 0.000848346
4 *126:10 *591:B 0
5 *126:10 *127:23 0
6 *126:10 *175:12 0
7 *126:10 *182:10 0.00034162
8 *589:A *126:10 0.000304824
9 *115:25 *126:10 0
*RES
1 *479:Y *126:10 49.7541 
2 *126:10 *552:A 40 
*END

*D_NET *127 0.0119996
*CONN
*I *553:A I *D sg13g2_buf_1
*I *479:C I *D sg13g2_nor4_1
*I *466:Y O *D sg13g2_inv_1
*CAP
1 *553:A 0
2 *479:C 0
3 *466:Y 0.00016938
4 *127:31 0
5 *127:27 0.00131861
6 *127:23 0.0025562
7 *127:12 0.00138208
8 *127:8 0.000313867
9 *127:12 *591:B 0
10 *127:23 *475:B1 0
11 *127:23 *169:33 0
12 *127:27 *139:16 0.00151875
13 *127:27 *162:31 0.000113538
14 *127:27 *173:18 0.000995876
15 *427:B1 *127:23 0.000981238
16 *49:8 *127:23 0.00070821
17 *62:21 *127:23 0.00158932
18 *113:16 *127:12 0
19 *115:10 *127:23 0
20 *115:25 *127:23 9.67074e-05
21 *115:31 *127:12 0.000208188
22 *115:31 *127:23 4.76456e-05
23 *115:62 *127:23 0
24 *115:77 *127:23 0
25 *115:253 *127:23 0
26 *126:10 *127:23 0
*RES
1 *466:Y *127:8 41.8334 
2 *127:8 *127:12 21.4008 
3 *127:12 *479:C 20 
4 *127:12 *127:23 36.1504 
5 *127:23 *127:27 36.9744 
6 *127:27 *127:31 40 
7 *127:31 *553:A 20 
*END

*D_NET *128 0.000974856
*CONN
*I *554:A I *D sg13g2_buf_1
*I *482:Y O *D sg13g2_nand2_1
*CAP
1 *554:A 0.000125398
2 *482:Y 5.80938e-05
3 *128:8 0.000183492
4 *128:8 *133:10 0.000181608
5 *128:8 *162:69 7.51285e-05
6 *17:12 *554:A 0.000143171
7 *29:14 *554:A 0.000207964
8 *30:10 *554:A 0
*RES
1 *482:Y *128:8 40.8446 
2 *128:8 *554:A 41.4008 
*END

*D_NET *129 0.0024697
*CONN
*I *555:A I *D sg13g2_buf_1
*I *483:Y O *D sg13g2_nand2_1
*CAP
1 *555:A 0.00048431
2 *483:Y 0.00048431
3 *555:A *544:A 0
4 *555:A *140:37 0.000791602
5 *555:A *141:18 0.000661577
6 *555:A *143:59 4.79017e-05
7 *32:14 *555:A 0
*RES
1 *483:Y *555:A 45.8607 
*END

*D_NET *130 0.000498472
*CONN
*I *556:A I *D sg13g2_buf_1
*I *484:Y O *D sg13g2_nand2_1
*CAP
1 *556:A 0
2 *484:Y 0.000158389
3 *130:8 0.000158389
4 *130:8 *142:27 0
5 *487:B *130:8 0.000181695
*RES
1 *484:Y *130:8 41.8334 
2 *130:8 *556:A 40 
*END

*D_NET *131 0.00112013
*CONN
*I *557:A I *D sg13g2_buf_1
*I *485:Y O *D sg13g2_nand2_1
*CAP
1 *557:A 0.000463775
2 *485:Y 0.000463775
3 *557:A *485:A 0
4 *557:A *144:37 0
5 *557:A *163:40 4.77425e-05
6 *557:A *174:25 0
7 dac_code[2] *557:A 0
8 dac_code[3] *557:A 0
9 dac_code[4] *557:A 0.000144833
10 *446:A_N *557:A 0
11 *485:B *557:A 0
*RES
1 *485:Y *557:A 44.2642 
*END

*D_NET *132 0.00421887
*CONN
*I *465:B I *D sg13g2_and2_1
*I *467:A2 I *D sg13g2_o21ai_1
*I *464:B I *D sg13g2_nor2_1
*I *546:X O *D sg13g2_buf_1
*CAP
1 *465:B 0.000185229
2 *467:A2 0
3 *464:B 0.000116471
4 *546:X 0.000144526
5 *132:25 0.000382181
6 *132:12 0.00158687
7 *132:8 0.00141797
8 *465:B *467:B1 8.02105e-05
9 *132:25 *467:B1 1.54008e-05
10 *465:A *465:B 8.01176e-05
11 *474:A2 *465:B 0
12 *545:A *132:12 0
13 *45:9 *464:B 0
14 *45:9 *132:12 0
15 *112:10 *132:25 0
16 *115:39 *132:25 0
17 *121:10 *132:12 0
18 *125:8 *464:B 0
19 *125:8 *465:B 0.000209895
20 *125:8 *132:25 0
*RES
1 *546:X *132:8 41.8334 
2 *132:8 *132:12 34.3788 
3 *132:12 *464:B 21.3184 
4 *132:12 *132:25 1.9632 
5 *132:25 *467:A2 20 
6 *132:25 *465:B 22.2866 
*END

*D_NET *133 0.00622633
*CONN
*I *558:A I *D sg13g2_buf_1
*I *486:Y O *D sg13g2_nand2_1
*CAP
1 *558:A 0
2 *486:Y 0.000315173
3 *133:20 0.000159162
4 *133:14 0.00102564
5 *133:10 0.00118165
6 *133:10 *564:A 0.000111591
7 *133:10 *141:53 0
8 *133:10 *162:69 0.000239097
9 *133:14 *567:A 0.00115012
10 *133:14 *163:40 0
11 *133:14 *174:25 0.000631078
12 dac_code[2] *133:20 0
13 dac_code_n[6] *133:14 0.000890732
14 *31:10 *133:10 0.00034048
15 *128:8 *133:10 0.000181608
*RES
1 *486:Y *133:10 43.8213 
2 *133:10 *133:14 30.7017 
3 *133:14 *133:20 41.339 
4 *133:20 *558:A 20 
*END

*D_NET *134 0.00459772
*CONN
*I *559:A I *D sg13g2_buf_1
*I *487:Y O *D sg13g2_nand2_1
*CAP
1 *559:A 0.000117489
2 *487:Y 0.000714101
3 *134:24 0.000576559
4 *134:16 0.00117317
5 *559:A *164:16 4.77863e-05
6 *559:A *164:45 0.000161136
7 *134:16 *447:B1 0.000370484
8 *134:16 *536:A 0
9 *134:16 *138:16 0
10 *134:16 *138:24 0
11 *134:16 *140:25 0
12 *134:16 *144:29 0
13 *134:16 *161:56 0.000111583
14 *134:16 *164:69 0
15 *134:24 *174:25 0.000662108
16 dac_code[2] *134:16 0
17 dac_code[4] *134:24 0.000144063
18 dac_code[5] *134:24 0.000339131
19 dac_code[6] *559:A 0.000180111
20 *446:A_N *134:16 0
21 *100:65 *134:24 0
*RES
1 *487:Y *134:16 47.3748 
2 *134:16 *134:24 45.2736 
3 *134:24 *559:A 41.4008 
*END

*D_NET *135 0.00151619
*CONN
*I *560:A I *D sg13g2_buf_1
*I *488:Y O *D sg13g2_nand2_1
*CAP
1 *560:A 0.000473224
2 *488:Y 4.07033e-05
3 *135:8 0.000513928
4 *560:A *485:A 0
5 *560:A *164:56 0
6 dac_code[6] *560:A 4.77425e-05
7 *447:A2 *560:A 0.000199575
8 *488:B *135:8 0.000128248
9 *100:71 *560:A 0
10 *105:12 *560:A 0.000112766
*RES
1 *488:Y *135:8 40.5974 
2 *135:8 *560:A 44.4805 
*END

*D_NET *136 0.000887831
*CONN
*I *561:A I *D sg13g2_buf_1
*I *489:Y O *D sg13g2_nand2_1
*CAP
1 *561:A 0.000210795
2 *489:Y 0.000174521
3 *136:8 0.000385316
4 *561:A *164:16 0
5 *136:8 *164:12 0
6 *136:8 *172:8 0
7 bit_active[6] *136:8 0
8 bit_active[7] *561:A 7.97013e-05
9 bit_active[7] *136:8 2.20966e-05
10 dac_code[6] *561:A 1.54008e-05
11 *100:71 *561:A 0
12 *123:23 *136:8 0
*RES
1 *489:Y *136:8 41.5862 
2 *136:8 *561:A 41.9673 
*END

*D_NET *137 0.00581357
*CONN
*I *562:A I *D sg13g2_buf_1
*I *462:B1 I *D sg13g2_a21oi_1
*I *461:Y O *D sg13g2_nand2b_1
*CAP
1 *562:A 0
2 *462:B1 0.000525078
3 *461:Y 0
4 *137:39 0.000567214
5 *137:16 0.00120261
6 *137:4 0.00124475
7 *462:B1 *517:RESET_B 0
8 *462:B1 *169:105 0.000176562
9 *462:B1 *170:8 0
10 *462:B1 *170:10 0
11 *137:16 *564:A 4.76068e-05
12 *137:16 *139:12 0.000241681
13 *137:16 *161:67 0
14 *137:16 *162:43 0.000176482
15 *137:16 *170:23 0
16 *137:16 *174:25 0
17 *137:39 *564:A 0.000241225
18 *137:39 *140:37 0
19 *137:39 *141:43 4.68848e-05
20 *137:39 *141:53 0.000181192
21 *137:39 *162:16 0
22 dac_code_n[0] *137:39 0
23 *441:A_N *137:16 8.00842e-05
24 *28:10 *137:39 0.000208883
25 *59:25 *137:16 0.00011159
26 *59:25 *137:39 0
27 *60:14 *462:B1 0
28 *64:12 *462:B1 0
29 *65:18 *462:B1 0
30 *106:6 *462:B1 0
31 *115:341 *137:16 0.000128663
32 *115:356 *137:16 0.00063306
*RES
1 *461:Y *137:4 20 
2 *137:4 *137:16 47.6735 
3 *137:16 *462:B1 25.0985 
4 *137:4 *137:39 46.1903 
5 *137:39 *562:A 20 
*END

*D_NET *138 0.0098516
*CONN
*I *563:A I *D sg13g2_buf_1
*I *457:B1 I *D sg13g2_a21oi_1
*I *456:Y O *D sg13g2_nand2b_1
*CAP
1 *563:A 0
2 *457:B1 0.000872211
3 *456:Y 2.80328e-05
4 *138:49 0.000712804
5 *138:24 0.0013758
6 *138:16 0.00147133
7 *138:6 0.00170858
8 *457:B1 *160:23 0.000307067
9 *457:B1 *164:6 0
10 *138:6 *144:37 0
11 *138:16 *461:B 0
12 *138:16 *144:37 0
13 *138:16 *161:30 7.93152e-05
14 *138:16 *161:56 0.000143979
15 *138:16 *161:67 0.000306112
16 *138:24 *447:B1 0.000177164
17 *138:24 *485:A 0
18 *138:24 *164:69 0.000232105
19 *138:24 *173:31 0
20 *138:49 *461:B 0
21 *138:49 *544:A 0
22 *138:49 *140:37 0
23 *138:49 *141:43 0.00012816
24 *138:49 *144:37 0
25 *138:49 *162:16 0.000112548
26 bit_active[6] *457:B1 0.000209681
27 dac_code[1] *138:16 7.51285e-05
28 *446:A_N *138:24 0
29 *451:A_N *138:16 0.000404345
30 *452:A2 *457:B1 1.54008e-05
31 *482:B *138:6 0
32 *495:A2 *457:B1 0
33 *519:CLK *457:B1 0
34 *527:CLK *457:B1 0
35 *55:8 *138:49 0.000393512
36 *59:8 *138:49 0
37 *62:42 *138:24 0
38 *84:25 *457:B1 0
39 *85:26 *457:B1 0
40 *100:65 *138:24 0.000402668
41 *100:71 *457:B1 0
42 *122:25 *457:B1 0.00069565
43 *134:16 *138:16 0
44 *134:16 *138:24 0
*RES
1 *456:Y *138:6 20.3502 
2 *138:6 *138:16 49.2082 
3 *138:16 *138:24 44.9646 
4 *138:24 *457:B1 29.373 
5 *138:6 *138:49 46.8701 
6 *138:49 *563:A 20 
*END

*D_NET *139 0.00827138
*CONN
*I *564:A I *D sg13g2_buf_1
*I *452:B1 I *D sg13g2_a21oi_1
*I *451:Y O *D sg13g2_nand2b_1
*CAP
1 *564:A 0.000609235
2 *452:B1 0
3 *451:Y 0
4 *139:16 0.00146626
5 *139:12 0.00177322
6 *139:4 0.000916196
7 *564:A *461:B 0.000208708
8 *564:A *568:A 0
9 *564:A *141:53 0
10 *564:A *144:37 0
11 *564:A *162:69 0
12 *139:12 *461:B 0
13 *139:12 *141:18 0.00012748
14 *139:12 *161:67 0
15 *139:12 *162:43 0
16 *139:16 *164:83 0
17 *139:16 *164:98 0
18 *139:16 *172:16 0.000771352
19 dac_code_n[0] *564:A 0.000111716
20 dac_code_n[2] *564:A 0
21 *484:B *139:12 0
22 *59:25 *564:A 0
23 *62:42 *139:16 0
24 *115:356 *139:12 0.000126358
25 *127:27 *139:16 0.00151875
26 *133:10 *564:A 0.000111591
27 *137:16 *564:A 4.76068e-05
28 *137:16 *139:12 0.000241681
29 *137:39 *564:A 0.000241225
*RES
1 *451:Y *139:4 20 
2 *139:4 *139:12 43.2033 
3 *139:12 *139:16 38.4885 
4 *139:16 *452:B1 40 
5 *139:4 *564:A 26.1977 
*END

*D_NET *140 0.00638059
*CONN
*I *565:A I *D sg13g2_buf_1
*I *447:B1 I *D sg13g2_a21oi_1
*I *446:Y O *D sg13g2_nand2b_1
*CAP
1 *565:A 0
2 *447:B1 0.00054762
3 *446:Y 0
4 *140:37 0.00104393
5 *140:31 0.00112774
6 *140:25 0.000350283
7 *140:4 0.000814091
8 *447:B1 *144:6 0
9 *447:B1 *144:29 0
10 *140:25 *145:10 1.54282e-05
11 *140:25 *161:36 7.93152e-05
12 *140:25 *161:56 0
13 *140:25 *162:43 8.00842e-05
14 *140:31 *142:27 0
15 *140:37 *483:A 4.77425e-05
16 *140:37 *544:A 0
17 *140:37 *141:18 4.77425e-05
18 *140:37 *141:43 6.43143e-05
19 *140:37 *162:16 0.000241089
20 *140:37 *162:43 0
21 dac_code[1] *140:25 0.000313766
22 *431:A_N *447:B1 1.15506e-05
23 *487:B *140:31 0
24 *490:A_N *447:B1 0
25 *517:CLK *140:37 0
26 *555:A *140:37 0.000791602
27 *32:14 *140:25 8.00842e-05
28 *32:14 *140:37 0.000176559
29 *115:356 *140:37 0
30 *122:25 *447:B1 0
31 *134:16 *447:B1 0.000370484
32 *134:16 *140:25 0
33 *137:39 *140:37 0
34 *138:24 *447:B1 0.000177164
35 *138:49 *140:37 0
*RES
1 *446:Y *140:4 20 
2 *140:4 *447:B1 25.4796 
3 *140:4 *140:25 42.9252 
4 *140:25 *140:31 40.5974 
5 *140:31 *140:37 30.2485 
6 *140:37 *565:A 40 
*END

*D_NET *141 0.00724748
*CONN
*I *566:A I *D sg13g2_buf_1
*I *442:B1 I *D sg13g2_a21oi_1
*I *441:Y O *D sg13g2_nand2b_1
*CAP
1 *566:A 0
2 *442:B1 0
3 *441:Y 0
4 *141:53 0.000507233
5 *141:43 0.000818441
6 *141:28 0.000536136
7 *141:18 0.0013178
8 *141:4 0.00109288
9 *141:18 *441:B 4.78524e-05
10 *141:18 *544:A 0
11 *141:18 *162:43 0
12 *141:28 *142:27 0.000232418
13 *141:28 *169:113 0.00039332
14 *141:28 *173:8 0
15 *141:53 *567:A 0
16 *141:53 *568:A 0.00011231
17 dac_code_n[1] *141:53 0.000499383
18 dac_code_n[2] *141:53 0
19 *441:A_N *141:18 0
20 *442:A2 *141:28 0
21 *518:CLK *141:18 0
22 *555:A *141:18 0.000661577
23 *564:A *141:53 0
24 *29:14 *141:53 0
25 *31:10 *141:53 4.75166e-05
26 *56:12 *141:18 0
27 *59:8 *141:43 0
28 *59:25 *141:43 0.000336926
29 *60:14 *141:28 0
30 *63:12 *141:28 0
31 *82:10 *141:28 4.79124e-05
32 *100:51 *141:28 0
33 *115:356 *141:18 0
34 *133:10 *141:53 0
35 *137:39 *141:43 4.68848e-05
36 *137:39 *141:53 0.000181192
37 *138:49 *141:43 0.00012816
38 *139:12 *141:18 0.00012748
39 *140:37 *141:18 4.77425e-05
40 *140:37 *141:43 6.43143e-05
*RES
1 *441:Y *141:4 20 
2 *141:4 *141:18 47.3748 
3 *141:18 *141:28 45.871 
4 *141:28 *442:B1 20 
5 *141:4 *141:43 43.399 
6 *141:43 *141:53 45.5929 
7 *141:53 *566:A 20 
*END

*D_NET *142 0.00818555
*CONN
*I *567:A I *D sg13g2_buf_1
*I *437:B1 I *D sg13g2_a21oi_1
*I *436:Y O *D sg13g2_nand2b_1
*CAP
1 *567:A 0.00108664
2 *437:B1 0
3 *436:Y 2.52214e-05
4 *142:27 0.00200002
5 *142:14 0.000578726
6 *142:6 0.00151732
7 *142:14 *435:A 0
8 *142:14 *160:34 0
9 *142:14 *160:36 0
10 *142:27 *173:8 0
11 dac_code[0] *142:27 0
12 dac_code_n[3] *567:A 0
13 dac_code_n[7] *142:27 0
14 *435:B_N *142:14 0
15 *437:A1 *142:14 0.000235556
16 *437:A2 *142:14 0
17 *30:10 *567:A 0
18 *50:8 *142:14 0
19 *64:12 *142:6 4.78356e-05
20 *64:12 *142:27 9.70527e-05
21 *65:10 *142:6 4.78356e-05
22 *65:10 *142:27 0.000208904
23 *100:29 *142:14 0
24 *100:40 *142:14 0.000425172
25 *100:51 *142:14 0.000532723
26 *130:8 *142:27 0
27 *133:14 *567:A 0.00115012
28 *140:31 *142:27 0
29 *141:28 *142:27 0.000232418
30 *141:53 *567:A 0
*RES
1 *436:Y *142:6 20.3193 
2 *142:6 *142:14 47.0967 
3 *142:14 *437:B1 20 
4 *142:6 *142:27 48.1782 
5 *142:27 *567:A 32.5042 
*END

*D_NET *143 0.0159294
*CONN
*I *542:A I *D sg13g2_buf_1
*I *544:A I *D sg13g2_buf_1
*I *543:A I *D sg13g2_buf_1
*I *547:X O *D sg13g2_buf_1
*CAP
1 *542:A 0.000165838
2 *544:A 0.00112331
3 *543:A 0
4 *547:X 0.000273945
5 *143:59 0.00152738
6 *143:42 0.00116455
7 *143:34 0.00211141
8 *143:26 0.00189508
9 *143:18 0.000813448
10 *143:10 0.000709083
11 *542:A *578:A 0
12 *542:A *154:19 0
13 *544:A *483:A 0
14 *544:A *517:RESET_B 0
15 *544:A *162:16 0
16 *544:A *170:8 0
17 *544:A *170:10 0
18 *143:10 *572:A 0.000242154
19 *143:18 *497:B2 0
20 *143:18 *575:A 0
21 *143:18 *576:A 0.000181279
22 *143:18 *158:79 0.000181192
23 *143:26 *491:B2 0
24 *143:26 *154:19 0
25 *143:34 *455:B_N 0
26 *143:34 *576:A 1.54008e-05
27 *143:34 *156:8 0
28 *143:34 *159:18 0
29 *143:34 *159:26 0
30 *143:34 *168:12 0
31 *143:34 *168:16 0
32 *143:34 *168:29 0
33 *143:34 *168:40 0.000274452
34 *143:59 *436:B 0
35 *143:59 *145:10 0
36 *143:59 *163:10 0.000128355
37 *143:59 *163:23 0.000104991
38 result[2] *143:10 0
39 *453:A *143:34 0
40 *458:A *143:34 0
41 *494:A *143:26 0
42 *497:A2 *143:26 0
43 *497:A2 *143:34 0
44 *507:D *143:18 0
45 *507:D *143:26 0.00030669
46 *526:D *143:34 0
47 *555:A *544:A 0
48 *555:A *143:59 4.79017e-05
49 *32:14 *143:59 0
50 *64:12 *143:34 4.7154e-05
51 *64:12 *143:42 0.00134148
52 *64:12 *143:59 0.000161858
53 *65:10 *544:A 0.000338246
54 *65:10 *143:34 0
55 *65:10 *143:42 0.00134148
56 *65:10 *143:59 0.000176581
57 *73:8 *143:26 0
58 *86:10 *143:34 0
59 *86:27 *143:26 0.000306963
60 *93:10 *143:26 0
61 *95:10 *542:A 0.000424775
62 *95:10 *143:26 7.56299e-05
63 *96:10 *143:18 0.000240328
64 *102:10 *143:34 8.02485e-05
65 *102:14 *143:34 0
66 *123:23 *143:42 0.00012816
67 *138:49 *544:A 0
68 *140:37 *544:A 0
69 *141:18 *544:A 0
*RES
1 *547:X *143:10 42.9561 
2 *143:10 *143:18 44.1921 
3 *143:18 *143:26 44.2848 
4 *143:26 *143:34 33.1325 
5 *143:34 *143:42 49.5687 
6 *143:42 *543:A 20 
7 *143:42 *143:59 44.2745 
8 *143:59 *544:A 29.7541 
9 *143:26 *542:A 42.3278 
*END

*D_NET *144 0.00754311
*CONN
*I *568:A I *D sg13g2_buf_1
*I *432:B1 I *D sg13g2_a21oi_1
*I *431:Y O *D sg13g2_nand2b_1
*CAP
1 *568:A 0.000175527
2 *432:B1 0
3 *431:Y 0.00013267
4 *144:37 0.0013
5 *144:29 0.001595
6 *144:14 0.00101078
7 *144:6 0.00161398
8 *144:14 *160:36 0
9 *144:14 *164:98 0
10 *144:29 *164:98 0
11 *144:37 *456:B 4.77425e-05
12 *144:37 *536:A 7.93426e-05
13 *144:37 *161:30 7.93426e-05
14 *144:37 *162:69 4.77425e-05
15 *144:37 *163:40 0
16 dac_code[1] *144:29 0
17 dac_code[2] *144:37 0
18 dac_code_n[2] *568:A 0.000240399
19 *432:A1 *144:14 0
20 *432:A2 *144:14 0.000287672
21 *435:B_N *144:14 0
22 *447:B1 *144:6 0
23 *447:B1 *144:29 0
24 *482:B *144:37 1.16309e-05
25 *490:A_N *144:29 0
26 *557:A *144:37 0
27 *564:A *568:A 0
28 *564:A *144:37 0
29 *17:12 *144:37 0
30 *29:14 *144:37 0
31 *49:25 *144:14 0.000181694
32 *56:6 *144:37 0
33 *62:42 *144:14 0
34 *100:18 *144:14 4.79124e-05
35 *100:63 *144:29 0.000340288
36 *108:10 *144:14 0.000128247
37 *122:25 *144:6 0.000110829
38 *122:25 *144:14 0
39 *134:16 *144:29 0
40 *138:6 *144:37 0
41 *138:16 *144:37 0
42 *138:49 *144:37 0
43 *141:53 *568:A 0.00011231
*RES
1 *431:Y *144:6 21.1845 
2 *144:6 *144:14 48.5799 
3 *144:14 *432:B1 20 
4 *144:6 *144:29 45.0985 
5 *144:29 *144:37 49.7541 
6 *144:37 *568:A 21.8334 
*END

*D_NET *145 0.000495951
*CONN
*I *569:A I *D sg13g2_buf_1
*I *490:Y O *D sg13g2_nand2b_1
*CAP
1 *569:A 0
2 *490:Y 0.000195872
3 *145:10 0.000195872
4 *145:10 *160:34 7.33225e-05
5 *145:10 *161:36 0
6 dac_code[1] *145:10 0
7 *490:A_N *145:10 0
8 *32:14 *145:10 1.54556e-05
9 *100:63 *145:10 0
10 *102:33 *145:10 0
11 *140:25 *145:10 1.54282e-05
12 *143:59 *145:10 0
*RES
1 *490:Y *145:10 41.8437 
2 *145:10 *569:A 40 
*END

*D_NET *146 0.00136387
*CONN
*I *570:A I *D sg13g2_buf_1
*I *515:Q O *D sg13g2_dfrbpq_1
*CAP
1 *570:A 0
2 *515:Q 0.000299934
3 *146:10 0.000299934
4 *146:10 *582:A 0
5 bit_active[1] *146:10 0.000209505
6 result[7] *146:10 0.000554493
*RES
1 *515:Q *146:10 43.9758 
2 *146:10 *570:A 40 
*END

*D_NET *147 0.000940634
*CONN
*I *571:A I *D sg13g2_buf_1
*I *532:X O *D sg13g2_buf_1
*CAP
1 *571:A 0
2 *532:X 0.000470317
3 *147:10 0.000470317
4 hold_req *147:10 0
5 *125:8 *147:10 0
*RES
1 *532:X *147:10 45.15 
2 *147:10 *571:A 40 
*END

*D_NET *148 0.0036517
*CONN
*I *572:A I *D sg13g2_buf_1
*I *491:B2 I *D sg13g2_a22oi_1
*I *506:Q O *D sg13g2_dfrbpq_1
*CAP
1 *572:A 0.000467798
2 *491:B2 0.000149232
3 *506:Q 0.00012685
4 *148:10 0.000617031
5 *148:8 0.00012685
6 *491:B2 *574:A 0
7 *491:B2 *152:14 7.9418e-05
8 *572:A *573:A 0
9 *572:A *574:A 0.000403318
10 *572:A *152:14 2.4729e-05
11 *148:8 *153:25 0.000659397
12 *148:8 *155:26 0.000659397
13 *506:CLK *572:A 4.77702e-05
14 *507:D *491:B2 0
15 *507:D *572:A 0
16 *43:9 *572:A 0
17 *93:10 *491:B2 4.77537e-05
18 *115:101 *491:B2 0
19 *143:10 *572:A 0.000242154
20 *143:26 *491:B2 0
*RES
1 *506:Q *148:8 43.0694 
2 *148:8 *148:10 20 
3 *148:10 *491:B2 21.4008 
4 *148:10 *572:A 25.1294 
*END

*D_NET *149 0.00253352
*CONN
*I *493:B2 I *D sg13g2_a22oi_1
*I *573:A I *D sg13g2_buf_1
*I *507:Q O *D sg13g2_dfrbpq_1
*CAP
1 *493:B2 0.000403773
2 *573:A 0.000546786
3 *507:Q 0.000300414
4 *149:8 0.00125097
5 *493:B2 *507:RESET_B 0
6 *493:B2 *509:RESET_B 0
7 *493:B2 *167:6 0
8 *493:B2 *167:105 0
9 result[0] *573:A 0
10 result[1] *573:A 0
11 result[1] *149:8 0
12 result[2] *573:A 0
13 result[2] *149:8 0
14 *507:D *573:A 0
15 *507:CLK *493:B2 0
16 *572:A *573:A 0
17 *85:10 *493:B2 3.15716e-05
*RES
1 *507:Q *149:8 42.8222 
2 *149:8 *573:A 45.0882 
3 *149:8 *493:B2 43.5392 
*END

*D_NET *150 0.00471412
*CONN
*I *495:B2 I *D sg13g2_a22oi_1
*I *574:A I *D sg13g2_buf_1
*I *508:Q O *D sg13g2_dfrbpq_1
*CAP
1 *495:B2 8.60827e-05
2 *574:A 0.000543128
3 *508:Q 0.000624086
4 *150:10 0.0012533
5 *574:A *576:A 0.000394443
6 *574:A *153:25 0.000607304
7 *574:A *155:26 0
8 *574:A *158:79 0
9 *150:10 *155:26 0
10 *150:10 *158:94 0
11 result[4] *150:10 0
12 result[5] *150:10 0
13 result[6] *150:10 7.9407e-05
14 *491:B2 *574:A 0
15 *495:A2 *495:B2 0.000144308
16 *507:D *574:A 0.000466782
17 *572:A *574:A 0.000403318
18 *95:10 *495:B2 0.000111966
*RES
1 *508:Q *150:10 45.0882 
2 *150:10 *574:A 46.9422 
3 *150:10 *495:B2 40.9682 
*END

*D_NET *151 0.00146461
*CONN
*I *497:B2 I *D sg13g2_a22oi_1
*I *575:A I *D sg13g2_buf_1
*I *509:Q O *D sg13g2_dfrbpq_1
*CAP
1 *497:B2 0.000308419
2 *575:A 0.00015644
3 *509:Q 0.000131176
4 *151:8 0.000596035
5 *497:B2 *576:A 0
6 *575:A *507:RESET_B 0
7 *151:8 *507:RESET_B 0
8 *507:D *575:A 0
9 *54:22 *497:B2 0
10 *96:10 *497:B2 0.000272538
11 *143:18 *497:B2 0
12 *143:18 *575:A 0
*RES
1 *509:Q *151:8 21.3802 
2 *151:8 *575:A 21.3499 
3 *151:8 *497:B2 22.9149 
*END

*D_NET *152 0.00341998
*CONN
*I *576:A I *D sg13g2_buf_1
*I *499:B2 I *D sg13g2_a22oi_1
*I *510:Q O *D sg13g2_dfrbpq_1
*CAP
1 *576:A 0.000511971
2 *499:B2 0.000283255
3 *510:Q 0.000318164
4 *152:14 0.00111339
5 *499:B2 *153:25 0
6 *499:B2 *158:79 0
7 *499:B2 *159:42 0
8 *499:B2 *159:46 0.000129163
9 *576:A *158:79 0
10 *152:14 *167:64 0
11 *491:B2 *152:14 7.9418e-05
12 *497:B2 *576:A 0
13 *497:A2 *576:A 0.00014459
14 *506:CLK *152:14 4.77702e-05
15 *508:D *576:A 0.000176405
16 *572:A *152:14 2.4729e-05
17 *574:A *576:A 0.000394443
18 *39:8 *576:A 0
19 *54:22 *576:A 0
20 *115:101 *152:14 0
21 *143:18 *576:A 0.000181279
22 *143:34 *576:A 1.54008e-05
*RES
1 *510:Q *152:14 43.2548 
2 *152:14 *499:B2 42.9355 
3 *152:14 *576:A 45.0235 
*END

*D_NET *153 0.00453377
*CONN
*I *577:A I *D sg13g2_buf_1
*I *501:B2 I *D sg13g2_a22oi_1
*I *511:Q O *D sg13g2_dfrbpq_1
*CAP
1 *577:A 0
2 *501:B2 0.000268781
3 *511:Q 3.37195e-05
4 *153:25 0.000977621
5 *153:8 0.00128012
6 *501:B2 *512:RESET_B 0
7 *501:B2 *158:27 0
8 *153:8 *155:26 4.73078e-05
9 *153:25 *155:26 0
10 *153:25 *158:79 0.000111957
11 *153:25 *167:81 0.000290042
12 *153:25 *168:12 0.000112558
13 result[5] *153:25 0
14 *499:B2 *153:25 0
15 *500:A *501:B2 0
16 *500:A *153:8 0
17 *502:A *501:B2 0.000144965
18 *511:CLK *501:B2 0
19 *574:A *153:25 0.000607304
20 *39:8 *153:25 0
21 *97:8 *501:B2 0
22 *148:8 *153:25 0.000659397
*RES
1 *511:Q *153:8 40.3193 
2 *153:8 *501:B2 42.7707 
3 *153:8 *153:25 30.3721 
4 *153:25 *577:A 20 
*END

*D_NET *154 0.00331858
*CONN
*I *578:A I *D sg13g2_buf_1
*I *515:D I *D sg13g2_dfrbpq_1
*I *505:S I *D sg13g2_mux2_1
*I *481:Y O *D sg13g2_inv_1
*CAP
1 *578:A 0.000321434
2 *515:D 0
3 *505:S 0.000627527
4 *481:Y 0
5 *154:19 0.000734632
6 *154:6 0.00104072
7 *505:S *505:A0 0
8 *505:S *514:D 0
9 *505:S *158:8 0
10 *505:S *158:50 0
11 *578:A *580:A 0
12 *578:A *159:32 0.000307002
13 *578:A *168:16 0
14 *154:19 *505:A0 0
15 *154:19 *580:A 0
16 *501:A2 *505:S 0
17 *505:A1 *505:S 0
18 *542:A *578:A 0
19 *542:A *154:19 0
20 *54:10 *505:S 0.000287256
21 *143:26 *154:19 0
*RES
1 *481:Y *154:6 40 
2 *154:6 *505:S 46.1388 
3 *154:6 *154:19 4.3054 
4 *154:19 *515:D 40 
5 *154:19 *578:A 43.6359 
*END

*D_NET *155 0.0060484
*CONN
*I *503:B2 I *D sg13g2_a22oi_1
*I *579:A I *D sg13g2_buf_1
*I *512:Q O *D sg13g2_dfrbpq_1
*CAP
1 *503:B2 0
2 *579:A 5.28403e-05
3 *512:Q 0.000196877
4 *155:26 0.00126118
5 *155:14 0.0012963
6 *155:10 0.000284843
7 *579:A *541:A 0
8 *155:10 *159:57 0.000181192
9 *155:14 *503:A1 0
10 *155:26 *158:94 0.000339977
11 *155:26 *167:81 0.000112525
12 result[4] *155:26 0.00118872
13 result[6] *579:A 0
14 *500:A *155:26 0
15 *503:A2 *155:14 0.000112136
16 *506:D *155:26 4.78524e-05
17 *574:A *155:26 0
18 *54:22 *155:10 0.000187162
19 *82:32 *155:10 0
20 *96:10 *155:26 0
21 *99:10 *155:14 3.23417e-05
22 *99:10 *155:26 4.77425e-05
23 *115:103 *155:26 0
24 *115:127 *155:26 0
25 *148:8 *155:26 0.000659397
26 *150:10 *155:26 0
27 *153:8 *155:26 4.73078e-05
28 *153:25 *155:26 0
*RES
1 *512:Q *155:10 42.0909 
2 *155:10 *155:14 20.9682 
3 *155:14 *155:26 34.111 
4 *155:26 *579:A 40.5356 
5 *155:14 *503:B2 20 
*END

*D_NET *156 0.003355
*CONN
*I *580:A I *D sg13g2_buf_1
*I *505:A0 I *D sg13g2_mux2_1
*I *513:Q O *D sg13g2_dfrbpq_1
*CAP
1 *580:A 0.000647556
2 *505:A0 0.000716575
3 *513:Q 3.60938e-05
4 *156:8 0.00140022
5 *505:A0 *455:B_N 0
6 *505:A0 *166:22 0
7 *580:A *455:B_N 0
8 *156:8 *168:16 0
9 *495:A2 *580:A 1.54008e-05
10 *505:S *505:A0 0
11 *578:A *580:A 0
12 *115:89 *505:A0 0
13 *115:179 *580:A 0.000274769
14 *115:183 *580:A 0.000264379
15 *143:34 *156:8 0
16 *154:19 *505:A0 0
17 *154:19 *580:A 0
*RES
1 *513:Q *156:8 40.3193 
2 *156:8 *505:A0 47.7662 
3 *156:8 *580:A 46.9113 
*END

*D_NET *157 0.000299703
*CONN
*I *581:A I *D sg13g2_buf_1
*I *477:Y O *D sg13g2_nor2_1
*CAP
1 *581:A 0.000149852
2 *477:Y 0.000149852
3 *581:A *532:A 0
*RES
1 *477:Y *581:A 41.4008 
*END

*D_NET *158 0.00862462
*CONN
*I *491:B1 I *D sg13g2_a22oi_1
*I *493:B1 I *D sg13g2_a22oi_1
*I *495:B1 I *D sg13g2_a22oi_1
*I *481:A I *D sg13g2_inv_1
*I *501:B1 I *D sg13g2_a22oi_1
*I *499:B1 I *D sg13g2_a22oi_1
*I *503:B1 I *D sg13g2_a22oi_1
*I *514:D I *D sg13g2_dfrbpq_1
*I *533:X O *D sg13g2_buf_1
*CAP
1 *491:B1 0
2 *493:B1 0
3 *495:B1 5.46918e-05
4 *481:A 6.60129e-05
5 *501:B1 0
6 *499:B1 0.000104496
7 *503:B1 0
8 *514:D 0.000498742
9 *533:X 0
10 *158:94 0.000188784
11 *158:79 0.000880565
12 *158:65 0.00118689
13 *158:50 0.000712244
14 *158:27 0.000201444
15 *158:23 0.000444071
16 *158:8 0.00117382
17 *158:6 0.000424385
18 *499:B1 *159:46 7.56308e-05
19 *514:D *514:RESET_B 0
20 *158:23 *501:A1 0.000144661
21 *158:23 *512:RESET_B 0
22 *158:79 *159:38 0
23 *158:79 *159:42 0
24 *158:94 *159:99 8.00842e-05
25 result[5] *158:79 4.77534e-05
26 *499:B2 *158:79 0
27 *501:B2 *158:27 0
28 *501:A2 *514:D 0
29 *501:A2 *158:23 0
30 *505:A1 *514:D 0
31 *505:S *514:D 0
32 *505:S *158:8 0
33 *505:S *158:50 0
34 *511:CLK *158:27 0
35 *574:A *158:79 0
36 *576:A *158:79 0
37 *54:10 *158:8 0.000287757
38 *77:10 *158:23 0
39 *82:32 *481:A 0
40 *86:27 *158:65 0
41 *93:10 *158:65 0.000145171
42 *93:10 *158:79 4.69809e-05
43 *94:10 *158:94 4.77425e-05
44 *95:10 *495:B1 4.77425e-05
45 *95:10 *158:79 7.96248e-05
46 *97:8 *499:B1 0.000318694
47 *97:8 *158:27 7.51285e-05
48 *99:10 *499:B1 7.52149e-05
49 *99:10 *158:27 0.000341534
50 *115:93 *481:A 0
51 *115:93 *158:65 0
52 *115:101 *158:79 0
53 *115:214 *158:23 0.000241631
54 *143:18 *158:79 0.000181192
55 *150:10 *158:94 0
56 *153:25 *158:79 0.000111957
57 *155:26 *158:94 0.000339977
*RES
1 *533:X *158:6 40 
2 *158:6 *158:8 3.5638 
3 *158:8 *514:D 45.2736 
4 *158:8 *158:23 23.7801 
5 *158:23 *158:27 21.5862 
6 *158:27 *503:B1 40 
7 *158:27 *499:B1 41.5862 
8 *158:23 *501:B1 20 
9 *158:6 *158:50 0.8446 
10 *158:50 *481:A 40.5356 
11 *158:50 *158:65 24.8771 
12 *158:65 *158:79 46.0101 
13 *158:79 *495:B1 20.5356 
14 *158:79 *158:94 42.1218 
15 *158:94 *493:B1 20 
16 *158:65 *491:B1 20 
*END

*D_NET *159 0.0119664
*CONN
*I *450:A I *D sg13g2_nor2b_1
*I *493:A1 I *D sg13g2_a22oi_1
*I *495:A1 I *D sg13g2_a22oi_1
*I *497:A1 I *D sg13g2_a22oi_1
*I *491:A1 I *D sg13g2_a22oi_1
*I *503:A1 I *D sg13g2_a22oi_1
*I *501:A1 I *D sg13g2_a22oi_1
*I *499:A1 I *D sg13g2_a22oi_1
*I *534:X O *D sg13g2_buf_1
*CAP
1 *450:A 0
2 *493:A1 0
3 *495:A1 0
4 *497:A1 2.55161e-05
5 *491:A1 0
6 *503:A1 0.000117466
7 *501:A1 0.000245191
8 *499:A1 0
9 *534:X 0.000281431
10 *159:109 0.000259285
11 *159:99 0.000580973
12 *159:57 0.000572959
13 *159:46 0.000351209
14 *159:42 0.000297912
15 *159:38 0.00049377
16 *159:36 0.000820047
17 *159:32 0.00107247
18 *159:26 0.00102218
19 *159:18 0.000272249
20 *159:10 0.000416862
21 *501:A1 *512:RESET_B 0
22 *159:18 *172:20 0
23 *159:18 *172:34 0
24 *159:26 *460:B_N 0
25 *159:26 *172:34 0
26 *159:32 *168:12 0
27 *159:32 *168:16 0
28 *159:32 *172:34 0.000769582
29 *159:38 *167:105 0.000181192
30 *159:57 *167:81 0.000143846
31 *159:99 *167:105 0.000428777
32 *159:109 *167:21 0
33 *159:109 *167:23 0
34 *159:109 *167:105 8.00842e-05
35 *453:A *159:18 0.000116994
36 *495:A2 *159:32 0.00046906
37 *499:B1 *159:46 7.56308e-05
38 *499:B2 *159:42 0
39 *499:B2 *159:46 0.000129163
40 *501:A2 *503:A1 0
41 *503:A2 *503:A1 0
42 *507:D *497:A1 4.78028e-05
43 *526:D *159:18 0
44 *539:A *159:10 0
45 *578:A *159:32 0.000307002
46 *54:22 *497:A1 4.78028e-05
47 *54:22 *159:38 7.51285e-05
48 *54:22 *159:42 0.00039332
49 *54:22 *159:57 7.91244e-05
50 *77:10 *501:A1 0
51 *82:32 *159:57 0
52 *84:25 *159:10 0.000230244
53 *84:25 *159:18 0
54 *94:10 *159:38 0
55 *94:10 *159:99 0
56 *97:8 *159:46 0
57 *100:77 *159:10 0
58 *102:10 *159:10 0.000287306
59 *102:10 *159:18 7.97646e-05
60 *102:10 *159:26 0
61 *115:140 *159:109 0.000341534
62 *115:214 *159:46 0.000447598
63 *115:214 *159:57 0
64 *143:34 *159:18 0
65 *143:34 *159:26 0
66 *155:10 *159:57 0.000181192
67 *155:14 *503:A1 0
68 *158:23 *501:A1 0.000144661
69 *158:79 *159:38 0
70 *158:79 *159:42 0
71 *158:94 *159:99 8.00842e-05
*RES
1 *534:X *159:10 43.1415 
2 *159:10 *159:18 21.6377 
3 *159:18 *159:26 41.4111 
4 *159:26 *159:32 49.1876 
5 *159:32 *159:36 22.266 
6 *159:36 *159:38 3.3166 
7 *159:38 *159:42 2.1527 
8 *159:42 *159:46 22.3278 
9 *159:46 *499:A1 20 
10 *159:46 *159:57 22.5544 
11 *159:57 *501:A1 42.5544 
12 *159:57 *503:A1 40.9682 
13 *159:42 *491:A1 40 
14 *159:38 *497:A1 40.3193 
15 *159:36 *159:99 23.3269 
16 *159:99 *159:109 42.6574 
17 *159:109 *495:A1 20 
18 *159:99 *493:A1 20 
19 *159:18 *450:A 20 
*END

*D_NET *160 0.0162614
*CONN
*I *440:A I *D sg13g2_nor2b_1
*I *455:A I *D sg13g2_nor2b_1
*I *460:A I *D sg13g2_nor2b_1
*I *480:B I *D sg13g2_nand2_1
*I *430:A I *D sg13g2_nor2b_1
*I *435:A I *D sg13g2_nor2b_1
*I *445:A I *D sg13g2_nor2b_1
*I *534:A I *D sg13g2_buf_1
*I *535:X O *D sg13g2_buf_1
*CAP
1 *440:A 0.000571418
2 *455:A 0.000193155
3 *460:A 0
4 *480:B 0.000697593
5 *430:A 4.69512e-05
6 *435:A 0.000412195
7 *445:A 0
8 *534:A 0
9 *535:X 0
10 *160:91 0.000324295
11 *160:76 0.000828733
12 *160:74 0.000724861
13 *160:55 0.00148578
14 *160:36 0.00128761
15 *160:34 0.00155736
16 *160:23 0.00138451
17 *160:12 0.000120175
18 *160:4 0.000680184
19 *440:A *439:B 0
20 *440:A *174:10 1.54008e-05
21 *455:A *460:B_N 0.000234224
22 *455:A *168:40 0
23 *480:B *166:14 0.00046911
24 *480:B *166:22 0
25 *480:B *168:48 0
26 *160:34 *163:10 0
27 *160:34 *164:98 0
28 *160:34 *169:105 0
29 *160:74 *524:RESET_B 8.00842e-05
30 *160:91 *168:40 0
31 *430:B_N *160:74 0.000242236
32 *435:B_N *435:A 0
33 *435:B_N *160:55 0
34 *457:B1 *160:23 0.000307067
35 *490:A_N *160:34 0
36 *497:A2 *455:A 0
37 *501:A2 *435:A 0
38 *501:A2 *480:B 0.000663779
39 *501:A2 *160:55 0
40 *503:A2 *480:B 0
41 *503:A2 *160:74 0.000533991
42 *513:D *480:B 0
43 *519:CLK *160:34 0
44 *527:CLK *160:23 0.000339327
45 *527:CLK *160:34 1.54008e-05
46 *51:8 *435:A 0
47 *52:8 *430:A 4.78028e-05
48 *52:16 *160:74 0.000234224
49 *52:29 *430:A 4.78359e-05
50 *52:29 *160:55 0.000161801
51 *54:10 *480:B 0
52 *62:8 *160:55 7.91347e-05
53 *63:12 *440:A 0
54 *80:8 *160:74 6.46888e-05
55 *81:10 *435:A 1.54008e-05
56 *85:26 *160:12 0.000128943
57 *86:27 *455:A 4.78521e-05
58 *100:18 *160:55 0
59 *100:18 *160:74 0
60 *100:29 *160:55 0
61 *100:63 *160:34 0.000391514
62 *102:14 *160:12 0
63 *102:33 *160:12 0
64 *102:33 *160:23 0.00040424
65 *102:33 *160:34 0.000460877
66 *115:81 *160:55 0.000324003
67 *115:83 *430:A 8.01445e-05
68 *115:83 *160:55 0.000209763
69 *115:83 *160:74 0
70 *115:89 *480:B 0
71 *115:89 *160:91 0
72 *123:23 *160:12 0
73 *124:16 *160:74 0.000274452
74 *142:14 *435:A 0
75 *142:14 *160:34 0
76 *142:14 *160:36 0
77 *144:14 *160:36 0
78 *145:10 *160:34 7.33225e-05
*RES
1 *535:X *160:4 20 
2 *160:4 *160:12 41.133 
3 *160:12 *534:A 20 
4 *160:4 *160:23 6.4581 
5 *160:23 *445:A 20 
6 *160:23 *160:34 29.1052 
7 *160:34 *160:36 1.8334 
8 *160:36 *435:A 44.0994 
9 *160:36 *160:55 27.4778 
10 *160:55 *430:A 20.5356 
11 *160:55 *160:74 48.137 
12 *160:74 *160:76 20 
13 *160:76 *480:B 47.9104 
14 *160:76 *160:91 1.5862 
15 *160:91 *460:A 40 
16 *160:91 *455:A 42.472 
17 *160:34 *440:A 44.7792 
*END

*D_NET *161 0.00741796
*CONN
*I *461:B I *D sg13g2_nand2b_1
*I *456:B I *D sg13g2_nand2b_1
*I *441:B I *D sg13g2_nand2b_1
*I *451:B I *D sg13g2_nand2b_1
*I *487:A I *D sg13g2_nand2_1
*I *490:B I *D sg13g2_nand2b_1
*I *446:B I *D sg13g2_nand2b_1
*I *485:A I *D sg13g2_nand2_1
*I *536:X O *D sg13g2_buf_1
*CAP
1 *461:B 0.00015781
2 *456:B 0.000123262
3 *441:B 0.000111902
4 *451:B 0
5 *487:A 0
6 *490:B 0
7 *446:B 0
8 *485:A 0.000342759
9 *536:X 0.000412764
10 *161:76 0.000235164
11 *161:74 0.000189673
12 *161:67 0.000662922
13 *161:56 0.000714337
14 *161:42 0.000150468
15 *161:36 0.000318794
16 *161:30 0.000321609
17 *161:30 *163:23 0.00012816
18 *161:36 *163:23 0.000343074
19 *161:67 *162:43 0
20 dac_code[1] *161:30 0.000106064
21 dac_code[1] *161:36 0.000341534
22 dac_code[1] *161:42 0
23 dac_code[4] *485:A 8.02379e-05
24 *441:A_N *441:B 4.77425e-05
25 *446:A_N *485:A 0.000143577
26 *447:A1 *485:A 0
27 *447:A2 *485:A 0
28 *451:A_N *161:67 0.000404345
29 *451:A_N *161:74 1.54008e-05
30 *484:B *161:67 0
31 *485:B *485:A 4.79124e-05
32 *490:A_N *161:36 1.54008e-05
33 *557:A *485:A 0
34 *560:A *485:A 0
35 *564:A *461:B 0.000208708
36 *55:12 *461:B 8.00842e-05
37 *56:6 *456:B 1.54008e-05
38 *56:12 *441:B 0.000287256
39 *56:12 *456:B 0.000265159
40 *59:8 *441:B 7.51285e-05
41 *100:63 *161:42 0
42 *100:65 *485:A 0.000176068
43 *134:16 *161:56 0.000111583
44 *137:16 *161:67 0
45 *138:16 *461:B 0
46 *138:16 *161:30 7.93152e-05
47 *138:16 *161:56 0.000143979
48 *138:16 *161:67 0.000306112
49 *138:24 *485:A 0
50 *138:49 *461:B 0
51 *139:12 *461:B 0
52 *139:12 *161:67 0
53 *140:25 *161:36 7.93152e-05
54 *140:25 *161:56 0
55 *141:18 *441:B 4.78524e-05
56 *144:37 *456:B 4.77425e-05
57 *144:37 *161:30 7.93426e-05
58 *145:10 *161:36 0
*RES
1 *536:X *485:A 44.1303 
2 *536:X *161:30 41.133 
3 *161:30 *161:36 22.5544 
4 *161:36 *161:42 41.339 
5 *161:42 *446:B 20 
6 *161:36 *490:B 20 
7 *161:30 *161:56 20.9682 
8 *161:56 *487:A 20 
9 *161:56 *161:67 6.6126 
10 *161:67 *451:B 20 
11 *161:67 *161:74 0.3193 
12 *161:74 *161:76 20 
13 *161:76 *441:B 41.6583 
14 *161:76 *456:B 41.6583 
15 *161:74 *461:B 21.6171 
*END

*D_NET *162 0.00642396
*CONN
*I *486:A I *D sg13g2_nand2_1
*I *482:A I *D sg13g2_nand2_1
*I *484:A I *D sg13g2_nand2_1
*I *483:A I *D sg13g2_nand2_1
*I *537:X O *D sg13g2_buf_1
*CAP
1 *486:A 0
2 *482:A 0
3 *484:A 0
4 *483:A 2.82366e-05
5 *537:X 6.64884e-05
6 *162:69 0.000291958
7 *162:50 0.000291958
8 *162:43 0.000815577
9 *162:31 0.000900138
10 *162:16 0.000542053
11 *162:10 0.000495744
12 dac_code_n[1] *162:16 0
13 dac_code_n[2] *162:10 0.00012816
14 dac_code_n[2] *162:16 0.000181608
15 dac_code_n[2] *162:69 0.000384103
16 *484:B *162:43 1.54556e-05
17 *517:CLK *162:43 0.000209868
18 *518:CLK *162:43 0
19 *544:A *483:A 0
20 *544:A *162:16 0
21 *564:A *162:69 0
22 *17:12 *162:10 8.01116e-05
23 *28:10 *162:10 0.000106064
24 *28:10 *162:16 0.000446767
25 *29:14 *162:10 8.01116e-05
26 *29:14 *162:69 8.00842e-05
27 *32:14 *162:43 0
28 *55:8 *162:16 0
29 *56:12 *162:31 7.30101e-05
30 *56:12 *162:43 0
31 *59:8 *162:31 7.30101e-05
32 *115:356 *162:43 0
33 *127:27 *162:31 0.000113538
34 *128:8 *162:69 7.51285e-05
35 *133:10 *162:69 0.000239097
36 *137:16 *162:43 0.000176482
37 *137:39 *162:16 0
38 *138:49 *162:16 0.000112548
39 *139:12 *162:43 0
40 *140:25 *162:43 8.00842e-05
41 *140:37 *483:A 4.77425e-05
42 *140:37 *162:16 0.000241089
43 *140:37 *162:43 0
44 *141:18 *162:43 0
45 *144:37 *162:69 4.77425e-05
46 *161:67 *162:43 0
*RES
1 *537:X *162:10 41.133 
2 *162:10 *162:16 25.1809 
3 *162:16 *483:A 20.3193 
4 *162:16 *162:31 41.1021 
5 *162:31 *162:43 47.2718 
6 *162:43 *484:A 20 
7 *162:10 *162:50 20 
8 *162:50 *482:A 20 
9 *162:50 *162:69 43.6668 
10 *162:69 *486:A 20 
*END

*D_NET *163 0.00738253
*CONN
*I *444:A I *D sg13g2_and2_1
*I *537:A I *D sg13g2_buf_1
*I *536:A I *D sg13g2_buf_1
*I *436:B I *D sg13g2_nand2b_1
*I *538:X O *D sg13g2_buf_1
*CAP
1 *444:A 0.000277964
2 *537:A 0
3 *536:A 9.90465e-05
4 *436:B 7.82891e-05
5 *538:X 0.000616585
6 *163:40 0.000877235
7 *163:23 0.00139767
8 *163:10 0.000838302
9 *163:40 *174:25 0
10 dac_code[1] *163:23 0
11 dac_code[1] *163:40 0.000234224
12 dac_code[2] *536:A 0.000176713
13 dac_code_n[6] *163:40 0
14 *442:A2 *444:A 0
15 *444:B *444:A 8.02105e-05
16 *446:A_N *536:A 4.79124e-05
17 *487:B *163:23 0
18 *557:A *163:40 4.77425e-05
19 *17:12 *163:40 0.00111608
20 *30:10 *163:40 0.000598361
21 *60:14 *444:A 0
22 *65:10 *436:B 0.00011227
23 *82:32 *163:10 0
24 *124:35 *163:10 0
25 *133:14 *163:40 0
26 *134:16 *536:A 0
27 *143:59 *436:B 0
28 *143:59 *163:10 0.000128355
29 *143:59 *163:23 0.000104991
30 *144:37 *536:A 7.93426e-05
31 *144:37 *163:40 0
32 *160:34 *163:10 0
33 *161:30 *163:23 0.00012816
34 *161:36 *163:23 0.000343074
*RES
1 *538:X *163:10 43.1415 
2 *163:10 *436:B 40.7519 
3 *163:10 *163:23 4.6247 
4 *163:23 *536:A 41.1845 
5 *163:23 *163:40 30.1661 
6 *163:40 *537:A 20 
7 *538:X *444:A 42.3999 
*END

*D_NET *164 0.0100962
*CONN
*I *489:A I *D sg13g2_nand2_1
*I *434:B I *D sg13g2_and2_1
*I *431:B I *D sg13g2_nand2b_1
*I *488:A I *D sg13g2_nand2_1
*I *449:A I *D sg13g2_and2_1
*I *459:A I *D sg13g2_and2_1
*I *550:A I *D sg13g2_buf_1
*I *454:A I *D sg13g2_and2_1
*I *539:X O *D sg13g2_buf_1
*CAP
1 *489:A 0
2 *434:B 0
3 *431:B 0
4 *488:A 0
5 *449:A 0
6 *459:A 0
7 *550:A 0.000410547
8 *454:A 0
9 *539:X 0.000142352
10 *164:98 0.000954442
11 *164:83 0.00022852
12 *164:69 0.00135016
13 *164:56 0.00050697
14 *164:45 0.000464
15 *164:24 0.00118221
16 *164:16 0.00122397
17 *164:12 0.000781488
18 *164:6 0.000347295
19 *550:A *582:A 0
20 *164:16 *174:25 0
21 *164:24 *582:A 0
22 *164:24 *165:8 0.000242055
23 *164:24 *172:34 0
24 *164:24 *174:25 0
25 *164:69 *173:31 0.000494743
26 *164:83 *172:8 0
27 *164:98 *169:105 0
28 bit_active[3] *164:24 0
29 bit_active[5] *164:16 4.79124e-05
30 bit_active[6] *164:6 0
31 busy *550:A 0
32 dac_code[5] *164:45 0.000144052
33 dac_code[5] *164:56 0.000177581
34 dac_code[6] *164:45 0
35 dac_code[6] *164:56 0
36 dac_code[7] *164:16 0
37 dac_code[7] *164:45 0
38 done *550:A 0
39 *431:A_N *164:83 1.54008e-05
40 *447:A2 *164:56 0
41 *452:A2 *164:24 0
42 *454:B *164:24 0.000306128
43 *457:B1 *164:6 0
44 *459:B *164:24 0
45 *489:B *164:6 0
46 *559:A *164:16 4.77863e-05
47 *559:A *164:45 0.000161136
48 *560:A *164:56 0
49 *561:A *164:16 0
50 *49:25 *164:98 0.000181694
51 *83:8 *164:83 7.31628e-05
52 *85:10 *550:A 0
53 *85:10 *164:24 0
54 *100:63 *164:98 0
55 *100:71 *164:6 0.000241847
56 *100:71 *164:16 0
57 *100:71 *164:24 9.08521e-05
58 *103:10 *164:16 0
59 *103:10 *164:24 0
60 *103:31 *164:24 4.77702e-05
61 *104:18 *164:24 0
62 *122:25 *164:6 0
63 *122:25 *164:83 0
64 *134:16 *164:69 0
65 *136:8 *164:12 0
66 *138:24 *164:69 0.000232105
67 *139:16 *164:83 0
68 *139:16 *164:98 0
69 *144:14 *164:98 0
70 *144:29 *164:98 0
71 *160:34 *164:98 0
*RES
1 *539:X *164:6 21.6171 
2 *164:6 *164:12 41.8334 
3 *164:12 *164:16 4.4084 
4 *164:16 *164:24 8.0408 
5 *164:24 *454:A 20 
6 *164:24 *550:A 23.9449 
7 *164:16 *459:A 20 
8 *164:12 *164:45 1.4008 
9 *164:45 *449:A 20 
10 *164:45 *164:56 3.399 
11 *164:56 *488:A 20 
12 *164:56 *164:69 42.6427 
13 *164:69 *164:83 42.3433 
14 *164:83 *431:B 20 
15 *164:69 *164:98 48.9301 
16 *164:98 *434:B 20 
17 *164:6 *489:A 20 
*END

*D_NET *165 0.00574498
*CONN
*I *582:A I *D sg13g2_buf_1
*I *460:B_N I *D sg13g2_nor2b_1
*I *459:X O *D sg13g2_and2_1
*CAP
1 *582:A 0.000792056
2 *460:B_N 0.000633934
3 *459:X 0.000148581
4 *165:8 0.00157457
5 *460:B_N *168:29 0.00012816
6 *460:B_N *168:40 0
7 *582:A *172:34 0
8 *582:A *173:39 0.000565349
9 *165:8 *173:39 0
10 bit_active[1] *582:A 0
11 bit_active[2] *460:B_N 0
12 bit_active[2] *582:A 0
13 bit_active[3] *582:A 0.000575674
14 busy *582:A 0.000338927
15 *455:A *460:B_N 0.000234224
16 *524:CLK *460:B_N 4.77425e-05
17 *550:A *582:A 0
18 *47:8 *460:B_N 0.000234224
19 *82:32 *460:B_N 4.77866e-05
20 *100:77 *460:B_N 0
21 *103:10 *165:8 0
22 *103:31 *460:B_N 0
23 *103:31 *582:A 0
24 *104:18 *460:B_N 0.000181694
25 *146:10 *582:A 0
26 *159:26 *460:B_N 0
27 *164:24 *582:A 0
28 *164:24 *165:8 0.000242055
*RES
1 *459:X *165:8 41.6171 
2 *165:8 *460:B_N 48.1576 
3 *165:8 *582:A 49.1155 
*END

*D_NET *166 0.0189936
*CONN
*I *439:B I *D sg13g2_and2_1
*I *429:A I *D sg13g2_and2_1
*I *424:A I *D sg13g2_inv_1
*I *467:B1 I *D sg13g2_o21ai_1
*I *532:A I *D sg13g2_buf_1
*I *477:A I *D sg13g2_nor2_1
*I *471:C I *D sg13g2_nand3b_1
*I *480:A I *D sg13g2_nand2_1
*I *540:X O *D sg13g2_buf_1
*CAP
1 *439:B 0.000921616
2 *429:A 0
3 *424:A 5.0355e-05
4 *467:B1 0.000115921
5 *532:A 0.00085635
6 *477:A 0
7 *471:C 0.000215644
8 *480:A 0
9 *540:X 6.68694e-05
10 *166:113 0.00179295
11 *166:98 0.00103824
12 *166:66 0.00233528
13 *166:56 0.00229199
14 *166:50 0.001367
15 *166:35 0.00110263
16 *166:29 0.000588762
17 *166:22 0.000195776
18 *166:14 0.000645668
19 *166:6 0.000671134
20 *424:A *478:B 6.43908e-05
21 *439:B *174:10 1.54556e-05
22 *471:C *168:48 0
23 *166:50 *169:41 0
24 *166:56 *478:B 0.000272397
25 *166:66 *594:A 0
26 *166:66 *602:A 0
27 *166:113 *522:RESET_B 8.01776e-05
28 cmp_fire *166:66 0
29 *429:B *166:113 8.02431e-05
30 *432:A1 *439:B 0
31 *432:A2 *439:B 8.01776e-05
32 *437:A2 *439:B 0
33 *440:A *439:B 0
34 *465:A *467:B1 4.77154e-05
35 *465:B *467:B1 8.02105e-05
36 *468:A *166:56 0
37 *468:B *467:B1 0
38 *469:A *166:50 0
39 *471:A_N *471:C 4.77425e-05
40 *473:C *166:66 2.21754e-05
41 *474:A2 *467:B1 0
42 *480:B *166:14 0.00046911
43 *480:B *166:22 0
44 *501:A2 *166:14 0
45 *501:A2 *166:29 0
46 *501:A2 *166:98 0
47 *501:A2 *166:113 0
48 *503:A2 *166:14 0
49 *503:A2 *166:22 0.000209637
50 *503:A2 *166:113 0
51 *505:A0 *166:22 0
52 *581:A *532:A 0
53 *587:A *471:C 0
54 *587:A *166:50 0
55 *45:9 *166:66 0
56 *46:16 *166:113 0
57 *52:16 *166:113 4.78028e-05
58 *53:8 *166:50 0.000127825
59 *54:10 *166:22 4.78195e-05
60 *63:12 *439:B 0
61 *63:12 *166:113 0.00092271
62 *69:10 *166:113 0
63 *79:12 *471:C 4.77425e-05
64 *79:12 *166:35 0.000554907
65 *79:12 *166:50 0.000566409
66 *79:27 *166:50 0
67 *80:8 *166:113 0
68 *87:6 *166:66 0
69 *87:23 *166:66 0
70 *89:8 *166:56 4.76661e-05
71 *100:14 *166:113 0
72 *100:29 *439:B 0.000394965
73 *110:12 *471:C 0
74 *115:31 *424:A 0
75 *115:31 *166:56 0
76 *115:39 *166:56 0
77 *115:83 *166:14 0
78 *115:83 *166:29 0
79 *115:83 *166:98 0
80 *115:83 *166:113 0
81 *119:10 *166:66 0
82 *121:10 *166:66 0
83 *121:19 *166:66 0
84 *122:8 *439:B 4.74263e-05
85 *123:8 *166:113 0.000181695
86 *123:23 *166:113 0.000265575
87 *125:8 *532:A 0
88 *125:8 *166:66 0
89 *132:25 *467:B1 1.54008e-05
*RES
1 *540:X *166:6 20.8446 
2 *166:6 *166:14 45.1809 
3 *166:14 *166:22 41.9982 
4 *166:22 *480:A 20 
5 *166:6 *166:29 1.4008 
6 *166:29 *166:35 43.5638 
7 *166:35 *471:C 21.7681 
8 *166:35 *166:50 47.0967 
9 *166:50 *166:56 27.2821 
10 *166:56 *166:66 33.8315 
11 *166:66 *477:A 20 
12 *166:66 *532:A 29.6923 
13 *166:56 *467:B1 41.1845 
14 *166:50 *424:A 20.5356 
15 *166:29 *166:98 1.6171 
16 *166:98 *429:A 20 
17 *166:98 *166:113 49.9498 
18 *166:113 *439:B 28.6108 
*END

*D_NET *167 0.0118643
*CONN
*I *508:RESET_B I *D sg13g2_dfrbpq_1
*I *507:RESET_B I *D sg13g2_dfrbpq_1
*I *513:RESET_B I *D sg13g2_dfrbpq_1
*I *506:RESET_B I *D sg13g2_dfrbpq_1
*I *512:RESET_B I *D sg13g2_dfrbpq_1
*I *511:RESET_B I *D sg13g2_dfrbpq_1
*I *510:RESET_B I *D sg13g2_dfrbpq_1
*I *509:RESET_B I *D sg13g2_dfrbpq_1
*I *541:X O *D sg13g2_buf_1
*CAP
1 *508:RESET_B 0
2 *507:RESET_B 0.00031376
3 *513:RESET_B 4.72978e-05
4 *506:RESET_B 0
5 *512:RESET_B 0.000400872
6 *511:RESET_B 0.000150125
7 *510:RESET_B 8.92232e-05
8 *509:RESET_B 0.000171804
9 *541:X 4.77357e-05
10 *167:105 0.000373998
11 *167:81 0.000947076
12 *167:64 0.00100159
13 *167:40 0.000767481
14 *167:27 0.000601373
15 *167:25 0.000928419
16 *167:23 0.000956942
17 *167:21 0.000662208
18 *167:6 0.000395508
19 result[2] *167:25 0
20 result[3] *167:21 0.00047744
21 result[3] *167:23 0.000266907
22 result[3] *167:25 0.000341535
23 *493:B2 *507:RESET_B 0
24 *493:B2 *509:RESET_B 0
25 *493:B2 *167:6 0
26 *493:B2 *167:105 0
27 *495:A2 *167:105 0.000338114
28 *500:A *510:RESET_B 0
29 *501:B2 *512:RESET_B 0
30 *501:A1 *512:RESET_B 0
31 *502:A *510:RESET_B 7.09751e-05
32 *502:A *512:RESET_B 0
33 *503:A2 *513:RESET_B 0
34 *503:A2 *167:81 0.000856267
35 *506:D *167:64 0
36 *506:D *167:81 7.90177e-05
37 *507:D *507:RESET_B 0
38 *507:CLK *507:RESET_B 0
39 *509:D *509:RESET_B 0
40 *509:D *167:6 0
41 *510:D *510:RESET_B 0
42 *510:CLK *167:64 0
43 *511:CLK *512:RESET_B 0
44 *511:CLK *167:27 0
45 *511:CLK *167:40 0.000342122
46 *575:A *507:RESET_B 0
47 *54:22 *167:81 0
48 *77:10 *512:RESET_B 0
49 *82:32 *167:81 0
50 *96:10 *167:21 0
51 *97:8 *167:81 0
52 *115:101 *167:81 0
53 *115:103 *167:25 0
54 *115:103 *167:27 0
55 *115:127 *167:25 0
56 *115:140 *167:21 0
57 *115:140 *167:25 0
58 *151:8 *507:RESET_B 0
59 *152:14 *167:64 0
60 *153:25 *167:81 0.000290042
61 *155:26 *167:81 0.000112525
62 *158:23 *512:RESET_B 0
63 *159:38 *167:105 0.000181192
64 *159:57 *167:81 0.000143846
65 *159:99 *167:105 0.000428777
66 *159:109 *167:21 0
67 *159:109 *167:23 0
68 *159:109 *167:105 8.00842e-05
*RES
1 *541:X *167:6 20.5356 
2 *167:6 *509:RESET_B 21.9158 
3 *167:6 *167:21 22.3278 
4 *167:21 *167:23 1.339 
5 *167:23 *167:25 5.7886 
6 *167:25 *167:27 3.0694 
7 *167:27 *510:RESET_B 40.9682 
8 *167:27 *167:40 3.1106 
9 *167:40 *511:RESET_B 41.6018 
10 *167:40 *512:RESET_B 44.429 
11 *167:25 *167:64 20.9682 
12 *167:64 *506:RESET_B 20 
13 *167:64 *167:81 49.682 
14 *167:81 *513:RESET_B 20.5974 
15 *167:23 *507:RESET_B 41.7496 
16 *167:21 *167:105 44.4702 
17 *167:105 *508:RESET_B 40 
*END

*D_NET *168 0.00975083
*CONN
*I *541:A I *D sg13g2_buf_1
*I *515:RESET_B I *D sg13g2_dfrbpq_1
*I *524:RESET_B I *D sg13g2_dfrbpq_1
*I *471:B I *D sg13g2_nand3b_1
*I *476:A I *D sg13g2_nand2_1
*I *514:RESET_B I *D sg13g2_dfrbpq_1
*I *525:RESET_B I *D sg13g2_dfrbpq_1
*I *526:RESET_B I *D sg13g2_dfrbpq_1
*I *542:X O *D sg13g2_buf_1
*CAP
1 *541:A 0.000534397
2 *515:RESET_B 0
3 *524:RESET_B 4.37077e-05
4 *471:B 0
5 *476:A 0.000448807
6 *514:RESET_B 0.000195058
7 *525:RESET_B 0
8 *526:RESET_B 0
9 *542:X 0
10 *168:59 0.00064132
11 *168:48 0.000881522
12 *168:40 0.00109412
13 *168:29 0.000758728
14 *168:16 0.000622382
15 *168:12 0.000797955
16 *168:6 0.000912242
17 *476:A *599:A 4.77425e-05
18 *168:16 *172:34 0
19 *168:29 *172:34 0
20 *168:40 *172:34 0
21 result[5] *168:12 1.54008e-05
22 result[6] *541:A 0
23 *455:A *168:40 0
24 *460:B_N *168:29 0.00012816
25 *460:B_N *168:40 0
26 *470:B *476:A 0
27 *471:C *168:48 0
28 *471:A_N *476:A 0
29 *471:A_N *168:59 0.000128247
30 *480:B *168:48 0
31 *495:A2 *168:12 0
32 *503:A2 *524:RESET_B 8.00842e-05
33 *505:A1 *514:RESET_B 0
34 *505:A1 *168:48 0
35 *514:D *514:RESET_B 0
36 *526:D *168:29 0.000242252
37 *526:D *168:40 0.000242055
38 *539:A *168:40 0
39 *578:A *168:16 0
40 *579:A *541:A 0
41 *605:A *476:A 0
42 *46:16 *168:48 0
43 *79:12 *168:48 0.00012816
44 *79:12 *168:59 0
45 *85:10 *541:A 0
46 *94:10 *541:A 0.000160758
47 *94:10 *168:12 0.000284465
48 *95:10 *168:12 0
49 *110:12 *476:A 0.000342932
50 *110:25 *168:59 0
51 *115:168 *541:A 0
52 *118:10 *476:A 0
53 *124:16 *168:40 0.000553247
54 *124:27 *168:40 0
55 *143:34 *168:12 0
56 *143:34 *168:16 0
57 *143:34 *168:29 0
58 *143:34 *168:40 0.000274452
59 *153:25 *168:12 0.000112558
60 *156:8 *168:16 0
61 *159:32 *168:12 0
62 *159:32 *168:16 0
63 *160:74 *524:RESET_B 8.00842e-05
64 *160:91 *168:40 0
*RES
1 *542:X *168:6 40 
2 *168:6 *168:12 24.0376 
3 *168:12 *168:16 4.3466 
4 *168:16 *526:RESET_B 20 
5 *168:16 *168:29 42.4308 
6 *168:29 *525:RESET_B 20 
7 *168:29 *168:40 27.1276 
8 *168:40 *168:48 25.0058 
9 *168:48 *514:RESET_B 21.8334 
10 *168:48 *168:59 22.575 
11 *168:59 *476:A 45.1294 
12 *168:59 *471:B 40 
13 *168:40 *524:RESET_B 40.5356 
14 *168:12 *515:RESET_B 20 
15 *168:6 *541:A 45.1809 
*END

*D_NET *169 0.0114951
*CONN
*I *516:RESET_B I *D sg13g2_dfrbpq_1
*I *519:RESET_B I *D sg13g2_dfrbpq_1
*I *522:RESET_B I *D sg13g2_dfrbpq_1
*I *530:RESET_B I *D sg13g2_dfrbpq_1
*I *523:RESET_B I *D sg13g2_dfrbpq_1
*I *475:B1 I *D sg13g2_o21ai_1
*I *531:RESET_B I *D sg13g2_dfrbpq_1
*I *527:RESET_B I *D sg13g2_dfrbpq_1
*I *543:X O *D sg13g2_buf_1
*CAP
1 *516:RESET_B 0
2 *519:RESET_B 0
3 *522:RESET_B 4.26982e-05
4 *530:RESET_B 0.000180076
5 *523:RESET_B 1.42515e-05
6 *475:B1 0.000501163
7 *531:RESET_B 0
8 *527:RESET_B 0.000183379
9 *543:X 2.49004e-05
10 *169:113 0.000818819
11 *169:105 0.00130751
12 *169:50 0.000559918
13 *169:41 0.000367145
14 *169:33 0.00069906
15 *169:29 0.000872119
16 *169:27 0.000787092
17 *169:14 0.000816065
18 *169:10 0.000446307
19 *169:6 0.000666978
20 *475:B1 *175:12 7.48842e-05
21 *442:A2 *169:113 0.000306517
22 *462:B1 *169:105 0.000176562
23 *501:A2 *530:RESET_B 0
24 *520:CLK *169:113 0.000209423
25 *528:CLK *169:113 0
26 *531:CLK *530:RESET_B 0
27 *591:A *475:B1 0
28 *52:29 *169:29 0
29 *52:29 *169:33 0
30 *60:14 *169:105 0
31 *63:12 *169:113 0
32 *64:12 *527:RESET_B 0
33 *64:12 *169:6 4.73361e-05
34 *64:12 *169:10 0.000209077
35 *64:12 *169:14 0
36 *69:10 *522:RESET_B 8.0216e-05
37 *69:10 *169:29 0
38 *79:27 *169:33 0
39 *82:10 *169:113 0
40 *83:8 *169:27 0.000287256
41 *86:10 *527:RESET_B 0.000306985
42 *86:10 *169:6 0
43 *86:10 *169:10 0
44 *86:10 *169:14 0
45 *86:10 *169:105 2.43395e-05
46 *100:63 *169:6 1.54008e-05
47 *100:63 *169:105 7.53209e-05
48 *106:6 *169:113 0
49 *115:77 *169:29 0
50 *115:77 *169:33 0
51 *115:253 *169:27 0
52 *115:259 *169:27 0.000340374
53 *115:337 *169:113 0.000144519
54 *124:35 *169:105 0.000435856
55 *127:23 *475:B1 0
56 *127:23 *169:33 0
57 *141:28 *169:113 0.00039332
58 *160:34 *169:105 0
59 *164:98 *169:105 0
60 *166:50 *169:41 0
61 *166:113 *522:RESET_B 8.01776e-05
*RES
1 *543:X *169:6 20.3193 
2 *169:6 *169:10 1.751 
3 *169:10 *169:14 2.3999 
4 *169:14 *527:RESET_B 22.0497 
5 *169:14 *169:27 24.1303 
6 *169:27 *169:29 3.811 
7 *169:29 *169:33 23.0694 
8 *169:33 *169:41 44.4084 
9 *169:41 *531:RESET_B 20 
10 *169:33 *169:50 20.5356 
11 *169:50 *475:B1 44.5886 
12 *169:50 *523:RESET_B 40.1339 
13 *169:29 *530:RESET_B 41.8334 
14 *169:27 *522:RESET_B 40.5356 
15 *169:10 *519:RESET_B 20 
16 *169:6 *169:105 44.8719 
17 *169:105 *169:113 48.6417 
18 *169:113 *516:RESET_B 20 
*END

*D_NET *170 0.00696786
*CONN
*I *518:RESET_B I *D sg13g2_dfrbpq_1
*I *520:RESET_B I *D sg13g2_dfrbpq_1
*I *528:RESET_B I *D sg13g2_dfrbpq_1
*I *521:RESET_B I *D sg13g2_dfrbpq_1
*I *529:RESET_B I *D sg13g2_dfrbpq_1
*I *517:RESET_B I *D sg13g2_dfrbpq_1
*I *544:X O *D sg13g2_buf_1
*CAP
1 *518:RESET_B 0
2 *520:RESET_B 0.000207172
3 *528:RESET_B 0.000542356
4 *521:RESET_B 0
5 *529:RESET_B 0.000440138
6 *517:RESET_B 0.000197236
7 *544:X 0.000622172
8 *170:40 0.000564035
9 *170:25 0.000563086
10 *170:23 0.00078448
11 *170:10 0.00070439
12 *170:8 0.000653288
13 *170:23 *174:25 0
14 *462:B1 *517:RESET_B 0
15 *462:B1 *170:8 0
16 *462:B1 *170:10 0
17 *516:CLK *170:8 0
18 *520:D *520:RESET_B 0
19 *520:D *528:RESET_B 0
20 *528:D *528:RESET_B 0
21 *528:CLK *520:RESET_B 0
22 *528:CLK *528:RESET_B 0
23 *544:A *517:RESET_B 0
24 *544:A *170:8 0
25 *544:A *170:10 0
26 *50:8 *529:RESET_B 0
27 *50:8 *170:23 0
28 *50:8 *170:25 0
29 *50:12 *528:RESET_B 0.000324124
30 *50:12 *170:40 4.77425e-05
31 *51:20 *529:RESET_B 0
32 *64:12 *517:RESET_B 0
33 *65:10 *517:RESET_B 8.00842e-05
34 *65:18 *517:RESET_B 0
35 *65:18 *170:23 0
36 *106:6 *170:8 0
37 *115:315 *529:RESET_B 0.000340704
38 *115:315 *170:23 0.000128663
39 *115:315 *170:25 0.000395396
40 *115:337 *170:23 0.000372797
41 *115:341 *170:23 0
42 *137:16 *170:23 0
*RES
1 *544:X *170:8 25.8607 
2 *170:8 *170:10 0.3193 
3 *170:10 *517:RESET_B 21.9673 
4 *170:10 *170:23 25.7886 
5 *170:23 *170:25 1.8334 
6 *170:25 *529:RESET_B 45.4281 
7 *170:25 *170:40 20.3193 
8 *170:40 *521:RESET_B 20 
9 *170:40 *528:RESET_B 26.5096 
10 *170:23 *520:RESET_B 42.4823 
11 *170:8 *518:RESET_B 20 
*END

*D_NET *171 0.00269811
*CONN
*I *583:A I *D sg13g2_buf_1
*I *455:B_N I *D sg13g2_nor2b_1
*I *454:X O *D sg13g2_and2_1
*CAP
1 *583:A 4.37077e-05
2 *455:B_N 0.000682925
3 *454:X 8.96694e-05
4 *171:8 0.000816302
5 *455:B_N *172:34 0.000234311
6 *171:8 *172:34 0.000234311
7 bit_active[0] *171:8 0
8 *495:A2 *583:A 8.00842e-05
9 *497:A2 *455:B_N 0.000436713
10 *505:A0 *455:B_N 0
11 *580:A *455:B_N 0
12 *115:183 *583:A 8.00842e-05
13 *143:34 *455:B_N 0
*RES
1 *454:X *171:8 41.0918 
2 *171:8 *455:B_N 47.2615 
3 *171:8 *583:A 40.5356 
*END

*D_NET *172 0.00539389
*CONN
*I *450:B_N I *D sg13g2_nor2b_1
*I *584:A I *D sg13g2_buf_1
*I *449:X O *D sg13g2_and2_1
*CAP
1 *450:B_N 0
2 *584:A 0
3 *449:X 0.000357766
4 *172:34 0.000865881
5 *172:20 0.000889765
6 *172:16 0.000468521
7 *172:8 0.000802402
8 bit_active[0] *172:34 0
9 bit_active[3] *172:34 0
10 *455:B_N *172:34 0.000234311
11 *526:D *172:34 0
12 *582:A *172:34 0
13 *83:8 *172:8 0
14 *102:10 *172:16 0
15 *104:18 *172:34 0
16 *136:8 *172:8 0
17 *139:16 *172:16 0.000771352
18 *159:18 *172:20 0
19 *159:18 *172:34 0
20 *159:26 *172:34 0
21 *159:32 *172:34 0.000769582
22 *164:24 *172:34 0
23 *164:83 *172:8 0
24 *168:16 *172:34 0
25 *168:29 *172:34 0
26 *168:40 *172:34 0
27 *171:8 *172:34 0.000234311
*RES
1 *449:X *172:8 43.5638 
2 *172:8 *172:16 45.3946 
3 *172:16 *172:20 20.2807 
4 *172:20 *172:34 49.6408 
5 *172:34 *584:A 20 
6 *172:20 *450:B_N 20 
*END

*D_NET *173 0.00992171
*CONN
*I *585:A I *D sg13g2_buf_1
*I *445:B_N I *D sg13g2_nor2b_1
*I *444:X O *D sg13g2_and2_1
*CAP
1 *585:A 0
2 *445:B_N 0
3 *444:X 0.000333924
4 *173:39 0.000645234
5 *173:31 0.00171811
6 *173:18 0.00176407
7 *173:8 0.00102512
8 *173:8 *174:25 0
9 *173:31 *174:25 0.00121508
10 bit_active[1] *173:39 0
11 bit_active[3] *173:39 0
12 bit_active[4] *173:39 0.000181778
13 *488:B *173:31 0.000497996
14 *582:A *173:39 0.000565349
15 *49:8 *173:18 7.30101e-05
16 *61:8 *173:31 0.000336595
17 *62:21 *173:18 0
18 *103:10 *173:31 0
19 *103:10 *173:39 0
20 *115:259 *173:18 7.48178e-05
21 *127:27 *173:18 0.000995876
22 *138:24 *173:31 0
23 *141:28 *173:8 0
24 *142:27 *173:8 0
25 *164:69 *173:31 0.000494743
26 *165:8 *173:39 0
*RES
1 *444:X *173:8 42.8222 
2 *173:8 *173:18 48.1885 
3 *173:18 *445:B_N 40 
4 *173:18 *173:31 33.5548 
5 *173:31 *173:39 46.4169 
6 *173:39 *585:A 20 
*END

*D_NET *174 0.00871768
*CONN
*I *586:A I *D sg13g2_buf_1
*I *440:B_N I *D sg13g2_nor2b_1
*I *439:X O *D sg13g2_and2_1
*CAP
1 *586:A 0
2 *440:B_N 0
3 *439:X 0.000170049
4 *174:25 0.00249958
5 *174:10 0.00266963
6 bit_active[5] *174:25 0
7 dac_code[3] *174:25 0.000500365
8 dac_code[4] *174:25 0
9 dac_code[5] *174:25 0
10 dac_code[7] *174:25 0.000338922
11 dac_code_n[7] *174:25 0
12 *439:B *174:10 1.54556e-05
13 *440:A *174:10 1.54008e-05
14 *459:B *174:25 0
15 *484:B *174:25 0
16 *557:A *174:25 0
17 *57:8 *174:25 0
18 *63:12 *174:10 0
19 *65:18 *174:25 0
20 *103:10 *174:25 0
21 *133:14 *174:25 0.000631078
22 *134:24 *174:25 0.000662108
23 *137:16 *174:25 0
24 *163:40 *174:25 0
25 *164:16 *174:25 0
26 *164:24 *174:25 0
27 *170:23 *174:25 0
28 *173:8 *174:25 0
29 *173:31 *174:25 0.00121508
*RES
1 *439:X *174:10 41.6583 
2 *174:10 *440:B_N 40 
3 *174:10 *174:25 46.7285 
4 *174:25 *586:A 20 
*END

*D_NET *175 0.00206505
*CONN
*I *592:A I *D sg13g2_nor2_1
*I *475:A2 I *D sg13g2_o21ai_1
*I *474:Y O *D sg13g2_o21ai_1
*CAP
1 *592:A 0.000262923
2 *475:A2 0
3 *474:Y 0
4 *175:12 0.00050745
5 *175:4 0.000770373
6 *175:12 *591:B 0
7 *175:12 *603:A 0
8 *175:12 *188:8 0
9 *474:B1 *175:12 0.000144783
10 *475:B1 *175:12 7.48842e-05
11 *591:A *175:12 1.54008e-05
12 *45:23 *175:12 0
13 *113:8 *175:12 0.000289234
14 *126:10 *175:12 0
*RES
1 *474:Y *175:4 20 
2 *175:4 *175:12 45.3972 
3 *175:12 *475:A2 20 
4 *175:4 *592:A 23.4814 
*END

*D_NET *176 0.00243393
*CONN
*I *478:B I *D sg13g2_nand2b_1
*I *605:B I *D sg13g2_nor2_1
*I *604:Y O *D sg13g2_nor2_1
*CAP
1 *478:B 0.000575794
2 *605:B 0
3 *604:Y 0
4 *176:12 0.000198478
5 *176:4 0.000774272
6 *176:12 *189:8 0.000340794
7 *424:A *478:B 6.43908e-05
8 *89:8 *478:B 0
9 *115:31 *478:B 0.000207804
10 *115:39 *478:B 0
11 *166:56 *478:B 0.000272397
*RES
1 *604:Y *176:4 20 
2 *176:4 *176:12 42.369 
3 *176:12 *605:B 20 
4 *176:4 *478:B 26.4478 
*END

*D_NET *177 0.00173652
*CONN
*I *593:A I *D sg13g2_dlygate4sd3_1
*I *477:B I *D sg13g2_nor2_1
*I *426:Y O *D sg13g2_inv_1
*CAP
1 *593:A 0
2 *477:B 0.000232359
3 *426:Y 0.000635902
4 *177:10 0.000868262
5 *177:10 *596:A 0
6 *177:10 *182:10 0
7 *425:A *177:10 0
8 *475:A1 *177:10 0
9 *589:A *177:10 0
10 *591:A *177:10 0
11 *125:8 *177:10 0
*RES
1 *426:Y *177:10 47.1276 
2 *177:10 *477:B 42.8222 
3 *177:10 *593:A 40 
*END

*D_NET *178 0.00127873
*CONN
*I *587:B I *D sg13g2_nor2_1
*I *588:Y O *D sg13g2_nor2_1
*CAP
1 *587:B 0
2 *588:Y 0.000522287
3 *178:14 0.000522287
4 *470:B *178:14 0
5 *115:39 *178:14 0
6 *117:8 *178:14 0.000234158
*RES
1 *588:Y *178:14 45.6341 
2 *178:14 *587:B 40 
*END

*D_NET *179 0.000357976
*CONN
*I *590:A I *D sg13g2_dlygate4sd3_1
*I *589:X O *D sg13g2_dlygate4sd3_1
*CAP
1 *590:A 0.000178988
2 *589:X 0.000178988
*RES
1 *589:X *590:A 41.9673 
*END

*D_NET *180 0.000875605
*CONN
*I *591:B I *D sg13g2_nor2_1
*I *592:Y O *D sg13g2_nor2_1
*CAP
1 *591:B 0.000349998
2 *592:Y 0.000349998
3 *591:B *603:A 0
4 *113:16 *591:B 0.000175608
5 *126:10 *591:B 0
6 *127:12 *591:B 0
7 *175:12 *591:B 0
*RES
1 *592:Y *591:B 43.8419 
*END

*D_NET *181 0.000356249
*CONN
*I *594:A I *D sg13g2_dlygate4sd3_1
*I *593:X O *D sg13g2_dlygate4sd3_1
*CAP
1 *594:A 0.000178125
2 *593:X 0.000178125
3 *125:8 *594:A 0
4 *166:66 *594:A 0
*RES
1 *593:X *594:A 41.751 
*END

*D_NET *182 0.000871201
*CONN
*I *595:A I *D sg13g2_dlygate4sd3_1
*I *594:X O *D sg13g2_dlygate4sd3_1
*CAP
1 *595:A 0
2 *594:X 0.00026479
3 *182:10 0.00026479
4 *182:10 *188:8 0
5 *125:8 *182:10 0
6 *126:10 *182:10 0.00034162
7 *177:10 *182:10 0
*RES
1 *594:X *182:10 43.2033 
2 *182:10 *595:A 40 
*END

*D_NET *183 0.000364316
*CONN
*I *596:A I *D sg13g2_dlygate4sd3_1
*I *595:X O *D sg13g2_dlygate4sd3_1
*CAP
1 *596:A 0.000182158
2 *595:X 0.000182158
3 *591:A *596:A 0
4 *45:23 *596:A 0
5 *125:8 *596:A 0
6 *177:10 *596:A 0
*RES
1 *595:X *596:A 41.9982 
*END

*D_NET *184 9.90264e-05
*CONN
*I *598:A I *D sg13g2_dlygate4sd3_1
*I *597:X O *D sg13g2_dlygate4sd3_1
*CAP
1 *598:A 4.95132e-05
2 *597:X 4.95132e-05
*RES
1 *597:X *598:A 40.5974 
*END

*D_NET *185 0.000542172
*CONN
*I *599:A I *D sg13g2_dlygate4sd3_1
*I *598:X O *D sg13g2_dlygate4sd3_1
*CAP
1 *599:A 0.000247215
2 *598:X 0.000247215
3 *476:A *599:A 4.77425e-05
*RES
1 *598:X *599:A 42.8428 
*END

*D_NET *186 0.000330935
*CONN
*I *601:A I *D sg13g2_dlygate4sd3_1
*I *600:X O *D sg13g2_dlygate4sd3_1
*CAP
1 *601:A 0.000165467
2 *600:X 0.000165467
3 *120:10 *601:A 0
4 *125:8 *601:A 0
*RES
1 *600:X *601:A 41.4008 
*END

*D_NET *187 0.00145246
*CONN
*I *602:A I *D sg13g2_dlygate4sd3_1
*I *601:X O *D sg13g2_dlygate4sd3_1
*CAP
1 *602:A 0.000324383
2 *601:X 0.000123441
3 *187:8 0.000447823
4 cmp_fire *602:A 0.000112651
5 *473:C *602:A 0.000209763
6 *45:23 *187:8 0.000234398
7 *91:8 *187:8 0
8 *166:66 *602:A 0
*RES
1 *601:X *187:8 41.5862 
2 *187:8 *602:A 43.5638 
*END

*D_NET *188 0.00104939
*CONN
*I *603:A I *D sg13g2_dlygate4sd3_1
*I *602:X O *D sg13g2_dlygate4sd3_1
*CAP
1 *603:A 0.000181278
2 *602:X 0.000343417
3 *188:8 0.000524695
4 *466:A *188:8 0
5 *473:B *188:8 0
6 *591:B *603:A 0
7 *113:16 *603:A 0
8 *175:12 *603:A 0
9 *175:12 *188:8 0
10 *182:10 *188:8 0
*RES
1 *602:X *188:8 43.811 
2 *188:8 *603:A 41.6171 
*END

*D_NET *189 0.00085889
*CONN
*I *604:B I *D sg13g2_nor2_1
*I *605:Y O *D sg13g2_nor2_1
*CAP
1 *604:B 3.06729e-05
2 *605:Y 0.000130373
3 *189:8 0.000161046
4 *470:B *604:B 1.54008e-05
5 *115:39 *604:B 0
6 *117:8 *189:8 0.000180603
7 *176:12 *189:8 0.000340794
*RES
1 *605:Y *189:8 41.8334 
2 *189:8 *604:B 40.3193 
*END
